Cell 1                                  
1.0
       13.7713508606         0.0000000000         0.0000000000
       -0.2265208026        14.3946544846         0.0000000000
        0.0346067552         0.0310714794        12.6307775633
   Al   Nb   Ta   Ti   Zr
   12   20    8   36   52
Cartesian
     8.496687923         5.280785400         1.252708448
     8.513991300         5.296321140         7.568097042
     8.383427522        12.478112643         1.252708448
     8.400730899        12.493648382         7.568097042
     8.501158302         1.170928142         1.231458325
     8.518461679         1.186463881         7.546847013
     8.387897901         8.368255384         1.231458325
     8.405201278         8.383791124         7.546847013
    13.395082428         7.150939267         6.001959511
    13.412385806         7.166475007        12.317348292
    13.281822020        14.348266938         6.001959511
    13.299125398        14.363802678        12.317348292
     9.999465294         3.228978333         6.061496633
    10.016768671         3.244514072        12.376885414
     9.886204896        10.426305360         6.061496633
     9.903508273        10.441841100        12.376885414
     7.081900495         3.236625828         2.732333005
     7.099203873         3.252161568         9.047721975
     6.968640090        10.433953285         2.732333005
     6.985943468        10.449489025         9.047721975
     8.503021099         1.368080049         4.437313382
     8.520324476         1.383615788        10.752702163
     8.389760701         8.565407076         4.437313382
     8.407064078         8.580942816        10.752702163
    10.122311024         6.900004811         2.973028958
    10.139614401         6.915540550         9.288417363
    10.009050616        14.097332483         2.973028958
    10.026353993        14.112868221         9.288417363
     5.351565490         4.992099215         1.252991992
     5.368868868         5.007634954         7.568380867
     5.238305095        12.189426028         1.252991992
     5.255608473        12.204961768         7.568380867
     8.460916901         5.070294316         4.418932476
     8.478220278         5.085830056        10.734321257
     8.347656499        12.267621558         4.418932476
     8.364959877        12.283157298        10.734321257
     3.752332722         6.598168100         2.832698286
     3.769636100         6.613703840         9.148087068
     3.639072321        13.795495343         2.832698286
     3.656375699        13.811031082         9.148087068
     3.814911046         6.503233706         5.980715505
     3.832214424         6.518769445        12.296104286
     3.701650652        13.700560519         5.980715505
     3.718954029        13.716096259        12.296104286
    10.099036002         6.881236258         5.829673617
    10.116339379         6.896771998        12.145062398
     9.985775600        14.078563501         5.829673617
    10.003078978        14.094099240        12.145062398
     6.731263452         6.760021328         2.946645977
     6.748566829         6.775557067         9.262034382
     6.618003051        13.957348570         2.946645977
     6.635306427        13.972884309         9.262034382
    11.647885354         1.464348806         1.153960483
    11.665188732         1.479884545         7.469349077
    11.534624953         8.661676048         1.153960483
    11.551928330         8.677211787         7.469349077
    11.727120698         1.567976477         4.535479391
    11.744424075         1.583512217        10.850868173
    11.613860290         8.765304149         4.535479391
    11.631163667         8.780839888        10.850868173
     7.150964456         3.260589907         6.139040869
     7.168267833         3.276125646        12.454429274
     7.037704052        10.457917364         6.139040869
     7.055007428        10.473453103        12.454429274
     6.788126080         6.746375258         5.881710440
     6.805429459         6.761910998        12.197099598
     6.674865679        13.943702500         5.881710440
     6.692169058        13.959238241        12.197099598
     5.447835378         4.787468930         4.440269083
     5.465138756         4.803004669        10.755657864
     5.334574977        11.984796172         4.440269083
     5.351878354        12.000331912        10.755657864
     3.473964911         3.512283878         6.025034832
     3.491268287         3.527819617        12.340423237
     3.360704513        10.709610906         6.025034832
     3.378007889        10.725146644        12.340423237
     3.421357897         3.467985329         2.860318958
     3.438661274         3.483521068         9.175707739
     3.308097499        10.665312356         2.860318958
     3.325400876        10.680848096         9.175707739
    11.840722292         5.105139113         1.205012199
    11.858025669         5.120674852         7.520400792
    11.727461891        12.302466355         1.205012199
    11.744765268        12.318002094         7.520400792
     5.229765889         1.523957355         4.461698667
     5.247069267         1.539493095        10.777087825
     5.116505487         8.721284597         4.461698667
     5.133808866         8.736820338        10.777087825
     5.269994488         1.441826005         1.217365293
     5.287297866         1.457361746         7.532754357
     5.156734093         8.639152819         1.217365293
     5.174037472         8.654688559         7.532754357
     1.534680584         5.284948192         4.487385259
     1.551983961         5.300483931        10.802773664
     1.421420176        12.482275864         4.487385259
     1.438723552        12.497811602        10.802773664
    13.678755205         3.147203011         2.844352827
    13.696058582         3.162738750         9.159741233
    13.565494800        10.344530468         2.844352827
    13.582798177        10.360066207         9.159741233
     1.554696682         5.287573780         1.201951569
     1.572000060         5.303109520         7.517340445
     1.441436274        12.484901451         1.201951569
     1.458739651        12.500437191         7.517340445
    13.737436122         3.030451142         6.049869571
    13.754739499         3.045986881        12.365258352
    13.624175717        10.227778598         6.049869571
    13.641479095        10.243314338        12.365258352
     1.986947243         1.266627800         4.489776320
     2.004250620         1.282163539        10.805164725
     1.873686835         8.463955471         4.489776320
     1.890990212         8.479491210        10.805164725
    13.375034510         7.201245937         2.825560111
    13.392337886         7.216781676         9.140948516
    13.261774108        14.398573180         2.825560111
    13.279077485        14.414108919         9.140948516
     2.010930764         1.251189065         1.199711831
     2.028234141         1.266724804         7.515100707
     1.897670369         8.448515878         1.199711831
     1.914973747         8.464051618         7.515100707
    10.028778175         3.212005304         2.739433538
    10.046081552         3.227541043         9.054822131
     9.915517770        10.409332761         2.739433538
     9.932821147        10.424868500         9.054822131
    11.904055689         5.016089724         4.493264665
    11.921359067         5.031625464        10.808653446
    11.790795281        12.213417396         4.493264665
    11.808098659        12.228953135        10.808653446
