Cell 1                                  
   1.00000000000000     
    19.0019101933005636   -0.8322501178700399    0.7322423721124954
    -0.2750380831663334    5.8727898309814819   -0.8374392283484730
     0.2556734495228505   -0.8413289378845584    5.8494375471583515
   Al Nb Ta Ti Zr
   1  3  7  6  15
Direct
  0.1359868827606021  0.7636754057978095  0.7714804654309779
  0.6145969708217106  0.7676246499902742  0.7628729798473944
  0.3752796864808948  0.2582818641307434  0.2286065878119152
  0.2532476692590773  0.0041506610440826  0.5039140540422498
  0.8739097956624370  0.2458690182991078  0.7478818594498289
  0.4973937898942609  0.0078830217361396  0.5108269431924383
  0.2557478821374689  0.4957247092747639  0.4936640746854070
  0.2551419604836803  0.4927320020060005 -0.0086839792760621
  0.6174397018112372  0.2379415672415286  0.7378259597023599
  0.2575633475655992  0.0058807603121976  0.0003656906163949
  0.4966675584469833  0.0009165350407125 -0.0021302332872792
  0.8772518152633286  0.7611283191148995  0.2268920527149463
  0.3688315071808870  0.7687666772877860  0.7525744396857719
  0.6142718123302714  0.7716273439795940  0.2772259197988124
  0.3700760242579888  0.2445621576122927  0.7291012070542761
  0.1439601940643719  0.2320433445251415  0.2333075485212031
  0.8748798325971280  0.2510816482031053  0.2574252765965389
  0.8793580942578124  0.7344043689972766  0.7276819518244246
  0.1356577212897717  0.7307233857686350  0.2636464058507986
  0.6184397304927184  0.2498403701883590  0.2433353137532633
  0.7390320480497402  0.5096633845476145  0.5164746753609130
  0.4971871861183538  0.4984768623551669  0.0021604928381400
  0.0061661151242646  0.4565492439010648  0.5063065454945390
  0.7452090822673222  0.5088623942521783  0.0037719916639482
  0.7550605138341164  0.0042503218678032  0.9841173111205154
  0.7516343935666651  0.0001230065200301  0.4802287155848742
  0.9966169309373144  0.9765016249546115  0.5082651076665045
  0.1332291827258764  0.2537878996622455  0.7388800524494995
  0.4937341334036609  0.5082822065853767  0.5101859312956484
  0.9991220540690993 -0.0035109394672678  0.0208953719766560
  0.9950095701413281  0.4893193987456378  0.0207785041929823
  0.3722968127039940  0.7728367855250522  0.2501207823401115
 
  0.00000000E+00  0.00000000E+00  0.00000000E+00
  0.00000000E+00  0.00000000E+00  0.00000000E+00
  0.00000000E+00  0.00000000E+00  0.00000000E+00
  0.00000000E+00  0.00000000E+00  0.00000000E+00
  0.00000000E+00  0.00000000E+00  0.00000000E+00
  0.00000000E+00  0.00000000E+00  0.00000000E+00
  0.00000000E+00  0.00000000E+00  0.00000000E+00
  0.00000000E+00  0.00000000E+00  0.00000000E+00
  0.00000000E+00  0.00000000E+00  0.00000000E+00
  0.00000000E+00  0.00000000E+00  0.00000000E+00
  0.00000000E+00  0.00000000E+00  0.00000000E+00
  0.00000000E+00  0.00000000E+00  0.00000000E+00
  0.00000000E+00  0.00000000E+00  0.00000000E+00
  0.00000000E+00  0.00000000E+00  0.00000000E+00
  0.00000000E+00  0.00000000E+00  0.00000000E+00
  0.00000000E+00  0.00000000E+00  0.00000000E+00
  0.00000000E+00  0.00000000E+00  0.00000000E+00
  0.00000000E+00  0.00000000E+00  0.00000000E+00
  0.00000000E+00  0.00000000E+00  0.00000000E+00
  0.00000000E+00  0.00000000E+00  0.00000000E+00
  0.00000000E+00  0.00000000E+00  0.00000000E+00
  0.00000000E+00  0.00000000E+00  0.00000000E+00
  0.00000000E+00  0.00000000E+00  0.00000000E+00
  0.00000000E+00  0.00000000E+00  0.00000000E+00
  0.00000000E+00  0.00000000E+00  0.00000000E+00
  0.00000000E+00  0.00000000E+00  0.00000000E+00
  0.00000000E+00  0.00000000E+00  0.00000000E+00
  0.00000000E+00  0.00000000E+00  0.00000000E+00
  0.00000000E+00  0.00000000E+00  0.00000000E+00
  0.00000000E+00  0.00000000E+00  0.00000000E+00
  0.00000000E+00  0.00000000E+00  0.00000000E+00
  0.00000000E+00  0.00000000E+00  0.00000000E+00
