Al Nb Ta Ti Zr
   1.00000000000000
    13.7713508606000001    0.0000000000000000    0.0000000000000000
     0.0000000000000000    9.5644817351999993    0.0000000000000000
     0.0000000000000000    0.0000000000000000   27.6625704340000027
   Al   Nb   Ta   Ti   Zr   O
    6   10    4   22  22   14
Selective dynamics
Direct
  0.6227644681929405  0.8674643039429171  0.3759033260777258   F   F   F
  0.6155124834600215  0.3965876596970762  0.5469735618494980   T   T   T
  0.5859171227749005  0.6224520853805592  0.6233502477636418   T   T   T
  0.6183969974481442  0.0836375951303197  0.4496595223020776   F   F   F
  0.9798717689473292  0.6351740908827217  0.5492257083002711   T   T   T
  0.9796378016624132  0.1205664799124548  0.3776759944968475   F   F   F
  0.7285730839017219  0.3433830738484147  0.4581681964168567   F   F   F
  0.7218388964912407  0.8421208695956562  0.6322208164145059   T   T   T
  0.5173959732146116  0.6080587505955819  0.3671982609221018   F   F   F
  0.5101908747724975  0.1311975575782870  0.5449147962223236   T   T   T
  0.6181107759263895  0.3429729342184160  0.3688918347753258   F   F   F
  0.6210173597171796  0.8675466469628608  0.5409340618876913   T   T   T
  0.7423114776813264  0.8434571027837592  0.4619929955349420   F   F   F
  0.7393927720616251  0.3860363290873467  0.6325919671145925   T   T   T
  0.3940529823058725  0.8473867177948620  0.3689603213971537   F   F   F
  0.3886075873865233  0.3699479633722187  0.5466992525405353   T   T   T
  0.6192876100775209  0.6016249657127588  0.4575279823759288   F   F   F
  0.6276492565826790  0.1158030465588836  0.6323054028527826   T   T   T
  0.2794419527143148  0.8336226940197378  0.4508832749927691   F   F   F
  0.2709298947455629  0.3454314876429391  0.6289969128255943   T   T   T
  0.9635726228721083  0.4076894395316097  0.6505295312921527   T   T   T
  0.1412245231255783  0.6070040364305199  0.6320874979137112   T   T   T
  0.7303490679828663  0.1296106691932214  0.5401657219942558   T   T   T
  0.8565865749607162  0.1138870580410171  0.6367231054135534   T   T   T
  0.2742179396915144  0.5873473770916443  0.5346874616856797   T   T   T
  0.2832424640461184  0.0772557258675732  0.3614993054914777   F   F   F
  0.7403116036035754  0.6316707518179177  0.5471211456919441   T   T   T
  0.7400235534014996  0.1154997349134348  0.3664649874525097   F   F   F
  0.4959175586426454  0.8358258009505022  0.4579001786989210   F   F   F
  0.4946753488647808  0.3616005976689829  0.6367179976833673   T   T   T
  0.8635157809983507  0.6464345300803526  0.6311019209934955   T   T   T
  0.8472460508127426  0.1101704835842838  0.4546023874391452   F   F   F
  0.8524358272350767  0.3490710258468823  0.3763926535981881   F   F   F
  0.8576102009215586  0.8704320262040941  0.5545728617257462   T   T   T
  0.5217510461923496  0.3394265770880409  0.4610525165558812   F   F   F
  0.5201973459045934  0.8806113720307858  0.6288110532833175   T   T   T
  0.4935446827449551  0.6314101440135618  0.5359168126590674   T   T   T
  0.4994388222783499  0.1020021438704362  0.3646426983734727   F   F   F
  0.4001666307672522  0.5802841186442933  0.4513025303916010   F   F   F
  0.3974317629759748  0.0968781595828618  0.6326236847936768   T   T   T
  0.2550581097348470  0.3659573793860957  0.4639910950655661   F   F   F
  0.2279907708965063  0.9088632014580583  0.6340002483420264   T   T   T
  0.2518259883220253  0.6139765977479001  0.3762730847385996   F   F   F
  0.2540963938616754  0.1346136543720967  0.5462307590999822   T   T   T
  0.8653988837868241  0.8590464592306759  0.3703682871931306   F   F   F
  0.8680216971129736  0.3718510806138619  0.5473858826789438   T   T   T
  0.3805981278129806  0.3518669605080902  0.3733126396781756   F   F   F
  0.3730464682668134  0.8717817731355109  0.5446337605495241   T   T   T
  0.3742005338030135  0.6429276093723755  0.6277936331876383   T   T   T
  0.3840800821604802  0.1035751104374185  0.4557961755970084   F   F   F
  0.1165738106051037  0.6111057400516628  0.4645705434229868   F   F   F
  0.0950414454307901  0.1534882158883530  0.6297798663113571   T   T   T
  0.9962986111445460  0.5929586291254907  0.3681123388838898   F   F   F
  0.9933837119110782  0.1071455706800021  0.5371655595897342   T   T   T
  0.1186931133006368  0.8719630241236089  0.3746770427834463   F   F   F
  0.1154448338179869  0.3850535124889443  0.5512033720954393   T   T   T
  0.9997795223845003  0.3305138945862467  0.4530698690095534   F   F   F
  0.0236807033175267  0.8538652747057214  0.6402588339296384   T   T   T
  0.1448227166810483  0.3317624926107570  0.3678856063387315   F   F   F
  0.1355837064011387  0.8438947618259997  0.5445285843231966   T   T   T
  0.9788804650651883  0.8760850429732940  0.4652082991240363   F   F   F
  0.1472104788064073  0.0917321443326102  0.4507227618542444   F   F   F
  0.7313524484961960  0.6057849526416419  0.3667998753119761   F   F   F
  0.8692325949844033  0.5919616818507762  0.4582581416374509   F   F   F
  11.27662072327075  4.69567145460429  18.741468582629505   T   T   T
  5.228442536495957  8.60456267810654  17.561120798314732   T   T   T
  7.284330700557738  0.5304005358022404  18.441926400394127   T   T   T
  11.945890228288878  8.390932191426128  17.60058198532948   T   T   T
  13.575259843544828  2.388708838370192  18.652548715052703   T   T   T
  5.515663108289778  2.733148984146227  18.451128934974644   T   T   T
  3.6699279544221963  5.122775129494514  18.395536417342516   T   T   T
  8.565619994342343  3.0679310634445067  18.429469597862674   T   T   T
  6.96266860833714  5.985328024878231  17.6909874687029   T   T   T
  10.179694073406067  0.510128717875286  18.44699892542231   T   T   T
  3.5185588086774513  1.3851457045278486  17.626001213303795   T   T   T
  1.9063727784379254  7.869618941919897  18.617936281450188   T   T   T
  8.606621054994182  7.219862543394213  18.457934099307696   T   T   T
  9.89713455301367  5.916701822770807  17.279031059348732   T   T   T
