Al Nb Ta Ti Zr                          
   1.00000000000000     
    13.7713508606000001    0.0000000000000000    0.0000000000000000
     0.0000000000000000    9.5644817351999993    0.0000000000000000
     0.0000000000000000    0.0000000000000000   27.6625704340000027
   Al   Nb   Ta   Ti   Zr   O 
     6    10     4    18    26    27
Selective dynamics
Direct
  0.6227644681929405  0.8674643039429171  0.3759033260777258   F   F   F
  0.6257510360677295  0.3948710212558491  0.5377183206161013   T   T   T
  0.6078240055636078  0.6541138361265908  0.6385468394531468   T   T   T
  0.6183969974481442  0.0836375951303197  0.4496595223020776   F   F   F
  0.9648085480426316  0.6253057144946442  0.5478427591141565   T   T   T
  0.9796378016624132  0.1205664799124548  0.3776759944968475   F   F   F
  0.7285730839017219  0.3433830738484147  0.4581681964168567   F   F   F
  0.7371635599422686  0.9243215522645135  0.6375395067468852   T   T   T
  0.5173959732146116  0.6080587505955819  0.3671982609221018   F   F   F
  0.5037634343295523  0.1220601696310549  0.5501679684048427   T   T   T
  0.6181107759263895  0.3429729342184160  0.3688918347753258   F   F   F
  0.6106138629918034  0.8774237632887117  0.5396816083259107   T   T   T
  0.7423114776813264  0.8434571027837592  0.4619929955349420   F   F   F
  0.7683064020142332  0.4092804837131486  0.6530571995541233   T   T   T
  0.3940529823058725  0.8473867177948620  0.3689603213971537   F   F   F
  0.4034929698495841  0.3492802719022857  0.5365745540025131   T   T   T
  0.6192876100775209  0.6016249657127588  0.4575279823759288   F   F   F
  0.6257928439175293  0.1502312917800964  0.6447350864579254   T   T   T
  0.2794419527143148  0.8336226940197378  0.4508832749927691   F   F   F
  0.2857525198742125  0.3711630873477300  0.6203133728290855   T   T   T
  0.2776292121480805  0.5828468713382084  0.5416676503429687   T   T   T
  0.2832424640461184  0.0772557258675732  0.3614993054914777   F   F   F
  0.7550876399034600  0.5951390648633043  0.5651248040045344   T   T   T
  0.7400235534014996  0.1154997349134348  0.3664649874525097   F   F   F
  0.4959175586426454  0.8358258009505022  0.4579001786989210   F   F   F
  0.5096100374575565  0.3885443776544092  0.6270055072852212   T   T   T
  0.8628065496470670  0.6934440477939123  0.6610290565262316   T   T   T
  0.8472460508127426  0.1101704835842838  0.4546023874391452   F   F   F
  0.8524358272350767  0.3490710258468823  0.3763926535981881   F   F   F
  0.8363409063497744  0.8393343397187257  0.5480003776161655   T   T   T
  0.5217510461923496  0.3394265770880409  0.4610525165558812   F   F   F
  0.5247374685447440  0.9154854107285202  0.6457070811148848   T   T   T
  0.4992373980875807  0.6079265429394358  0.5378742683385886   T   T   T
  0.4994388222783499  0.1020021438704362  0.3646426983734727   F   F   F
  0.4001666307672522  0.5802841186442933  0.4513025303916010   F   F   F
  0.4071718028196655  0.1268543470451428  0.6431074829911537   T   T   T
  0.2550581097348470  0.3659573793860957  0.4639910950655661   F   F   F
  0.2378013506533271  0.9292397479272929  0.6371861246927054   T   T   T
  0.2518259883220253  0.6139765977479001  0.3762730847385996   F   F   F
  0.2566367793519259  0.1303973440416566  0.5474393566742508   T   T   T
  0.8653988837868241  0.8590464592306759  0.3703682871931306   F   F   F
  0.8631902775781943  0.3650514598241036  0.5508094040277797   T   T   T
  0.3805981278129806  0.3518669605080902  0.3733126396781756   F   F   F
  0.3829834810578734  0.8667360793050615  0.5452277294824429   T   T   T
  0.3848705346274526  0.6766868460381146  0.6470618057217603   T   T   T
  0.3840800821604802  0.1035751104374185  0.4557961755970084   F   F   F
  0.1165738106051037  0.6111057400516628  0.4645705434229868   F   F   F
  0.1074596190113130  0.1739141947105572  0.6373049661312857   T   T   T
  0.9962986111445460  0.5929586291254907  0.3681123388838898   F   F   F
  0.9815727530142943  0.0871237145702115  0.5482442121958527   T   T   T
  0.1186931133006368  0.8719630241236089  0.3746770427834463   F   F   F
  0.0942531712805896  0.3823721236791387  0.5521920970546321   T   T   T
  0.9997795223845003  0.3305138945862467  0.4530698690095534   F   F   F
  0.0292989752707654  0.8822609808043227  0.6395213969921569   T   T   T
  0.1448227166810483  0.3317624926107570  0.3678856063387315   F   F   F
  0.1514192013889429  0.8506783356527171  0.5450481665705457   T   T   T
  0.9788804650651883  0.8760850429732940  0.4652082991240363   F   F   F
  0.9778799178697120  0.4317748392737051  0.6542461249946552   T   T   T
  0.1526757520342002  0.6276401780886330  0.6298032318643367   T   T   T
  0.1472104788064073  0.0917321443326102  0.4507227618542444   F   F   F
  0.7313524484961960  0.6057849526416419  0.3667998753119761   F   F   F
  0.7312040226475742  0.1227913728251820  0.5446824070116527   T   T   T
  0.8692325949844033  0.5919616818507762  0.4582581416374509   F   F   F
  0.8862131891125303  0.1382399667432105  0.6562039543189434   T   T   T
  0.3776947607835134  0.9014647338708429  0.6599077762910798   T   T   T
  1.0056534059565845  0.2386146445191049  0.6896868075357236   T   T   T
  0.2604124150832216  0.1493405883417630  0.6348210440090504   T   T   T
  0.0023613927922514  0.6573934928473529  0.6507712311415617   T   T   T
  0.2749459430278144  0.5456959277264655  0.6679391166992309   T   T   T
  0.3973234974447611  0.3224761100662078  0.6651918052144727   T   T   T
  0.7455334286538688  0.0923410514685232  0.6856975987050490   T   T   T
  0.5185414794225489  0.0837915952900346  0.6870377016443830   T   T   T
  0.1565861846982850  0.8103434968791019  0.6764115440936397   T   T   T
  0.6315646756453415  0.3556428243756622  0.6690117125109368   T   T   T
  0.5070595887526558  0.5766021789091260  0.6696204290958734   T   T   T
  0.8630929694578039  0.5146269260803935  0.6967758680964119   T   T   T
  0.8846870281604979  0.8949715243603422  0.6740403883091100   T   T   T
  0.6303739263633600  0.8106875071861165  0.6730480247880842   T   T   T
  0.7350841754976560  0.6090934781860464  0.6439084483348394   T   T   T
  0.2735547016120198  0.7469106754946475  0.5929884508349265   T   T   T
  0.9821666609393538  0.2686498288018089  0.5970270691041446   T   T   T
  0.1236271502229468  0.6209181851195004  0.5479044487512348   T   T   T
  0.8453276958782086  0.0146668044035341  0.5886304928904023   T   T   T
  0.2488445080920741  0.3671214708044155  0.5414447392432534   T   T   T
  0.5054373342395259  0.7604173237705210  0.5953926289304891   T   T   T
  0.6030237585015049  0.5298784238046538  0.5873458089363408   T   T   T
  0.3930029612917472  0.5193453626858465  0.5909141763670522   T   T   T
  0.9920318549556804  0.8537684556446451  0.5567004895496748   T   T   T
  0.7859633840152738  0.2468926706950190  0.6086270320118475   T   T   T
  0.6126800610994336  0.2500349776503726  0.5811029882538626   T   T   T
  0.7074465702438058  0.7825339754156975  0.5832592878458978   T   T   T
 
  0.00000000E+00  0.00000000E+00  0.00000000E+00
  0.00000000E+00  0.00000000E+00  0.00000000E+00
  0.00000000E+00  0.00000000E+00  0.00000000E+00
  0.00000000E+00  0.00000000E+00  0.00000000E+00
  0.00000000E+00  0.00000000E+00  0.00000000E+00
  0.00000000E+00  0.00000000E+00  0.00000000E+00
  0.00000000E+00  0.00000000E+00  0.00000000E+00
  0.00000000E+00  0.00000000E+00  0.00000000E+00
  0.00000000E+00  0.00000000E+00  0.00000000E+00
  0.00000000E+00  0.00000000E+00  0.00000000E+00
  0.00000000E+00  0.00000000E+00  0.00000000E+00
  0.00000000E+00  0.00000000E+00  0.00000000E+00
  0.00000000E+00  0.00000000E+00  0.00000000E+00
  0.00000000E+00  0.00000000E+00  0.00000000E+00
  0.00000000E+00  0.00000000E+00  0.00000000E+00
  0.00000000E+00  0.00000000E+00  0.00000000E+00
  0.00000000E+00  0.00000000E+00  0.00000000E+00
  0.00000000E+00  0.00000000E+00  0.00000000E+00
  0.00000000E+00  0.00000000E+00  0.00000000E+00
  0.00000000E+00  0.00000000E+00  0.00000000E+00
  0.00000000E+00  0.00000000E+00  0.00000000E+00
  0.00000000E+00  0.00000000E+00  0.00000000E+00
  0.00000000E+00  0.00000000E+00  0.00000000E+00
  0.00000000E+00  0.00000000E+00  0.00000000E+00
  0.00000000E+00  0.00000000E+00  0.00000000E+00
  0.00000000E+00  0.00000000E+00  0.00000000E+00
  0.00000000E+00  0.00000000E+00  0.00000000E+00
  0.00000000E+00  0.00000000E+00  0.00000000E+00
  0.00000000E+00  0.00000000E+00  0.00000000E+00
  0.00000000E+00  0.00000000E+00  0.00000000E+00
  0.00000000E+00  0.00000000E+00  0.00000000E+00
  0.00000000E+00  0.00000000E+00  0.00000000E+00
  0.00000000E+00  0.00000000E+00  0.00000000E+00
  0.00000000E+00  0.00000000E+00  0.00000000E+00
  0.00000000E+00  0.00000000E+00  0.00000000E+00
  0.00000000E+00  0.00000000E+00  0.00000000E+00
  0.00000000E+00  0.00000000E+00  0.00000000E+00
  0.00000000E+00  0.00000000E+00  0.00000000E+00
  0.00000000E+00  0.00000000E+00  0.00000000E+00
  0.00000000E+00  0.00000000E+00  0.00000000E+00
  0.00000000E+00  0.00000000E+00  0.00000000E+00
  0.00000000E+00  0.00000000E+00  0.00000000E+00
  0.00000000E+00  0.00000000E+00  0.00000000E+00
  0.00000000E+00  0.00000000E+00  0.00000000E+00
  0.00000000E+00  0.00000000E+00  0.00000000E+00
  0.00000000E+00  0.00000000E+00  0.00000000E+00
  0.00000000E+00  0.00000000E+00  0.00000000E+00
  0.00000000E+00  0.00000000E+00  0.00000000E+00
  0.00000000E+00  0.00000000E+00  0.00000000E+00
  0.00000000E+00  0.00000000E+00  0.00000000E+00
  0.00000000E+00  0.00000000E+00  0.00000000E+00
  0.00000000E+00  0.00000000E+00  0.00000000E+00
  0.00000000E+00  0.00000000E+00  0.00000000E+00
  0.00000000E+00  0.00000000E+00  0.00000000E+00
  0.00000000E+00  0.00000000E+00  0.00000000E+00
  0.00000000E+00  0.00000000E+00  0.00000000E+00
  0.00000000E+00  0.00000000E+00  0.00000000E+00
  0.00000000E+00  0.00000000E+00  0.00000000E+00
  0.00000000E+00  0.00000000E+00  0.00000000E+00
  0.00000000E+00  0.00000000E+00  0.00000000E+00
  0.00000000E+00  0.00000000E+00  0.00000000E+00
  0.00000000E+00  0.00000000E+00  0.00000000E+00
  0.00000000E+00  0.00000000E+00  0.00000000E+00
  0.00000000E+00  0.00000000E+00  0.00000000E+00
  0.00000000E+00  0.00000000E+00  0.00000000E+00
  0.00000000E+00  0.00000000E+00  0.00000000E+00
  0.00000000E+00  0.00000000E+00  0.00000000E+00
  0.00000000E+00  0.00000000E+00  0.00000000E+00
  0.00000000E+00  0.00000000E+00  0.00000000E+00
  0.00000000E+00  0.00000000E+00  0.00000000E+00
  0.00000000E+00  0.00000000E+00  0.00000000E+00
  0.00000000E+00  0.00000000E+00  0.00000000E+00
  0.00000000E+00  0.00000000E+00  0.00000000E+00
  0.00000000E+00  0.00000000E+00  0.00000000E+00
  0.00000000E+00  0.00000000E+00  0.00000000E+00
  0.00000000E+00  0.00000000E+00  0.00000000E+00
  0.00000000E+00  0.00000000E+00  0.00000000E+00
  0.00000000E+00  0.00000000E+00  0.00000000E+00
  0.00000000E+00  0.00000000E+00  0.00000000E+00
  0.00000000E+00  0.00000000E+00  0.00000000E+00
  0.00000000E+00  0.00000000E+00  0.00000000E+00
  0.00000000E+00  0.00000000E+00  0.00000000E+00
  0.00000000E+00  0.00000000E+00  0.00000000E+00
  0.00000000E+00  0.00000000E+00  0.00000000E+00
  0.00000000E+00  0.00000000E+00  0.00000000E+00
  0.00000000E+00  0.00000000E+00  0.00000000E+00
  0.00000000E+00  0.00000000E+00  0.00000000E+00
  0.00000000E+00  0.00000000E+00  0.00000000E+00
  0.00000000E+00  0.00000000E+00  0.00000000E+00
  0.00000000E+00  0.00000000E+00  0.00000000E+00
  0.00000000E+00  0.00000000E+00  0.00000000E+00
