Al Nb Ta Ti Zr                          
   1.00000000000000     
    13.7713508606000001    0.0000000000000000    0.0000000000000000
     0.0000000000000000    9.5644817351999993    0.0000000000000000
     0.0000000000000000    0.0000000000000000   27.6625704340000027
   Al   Nb   Ta   Ti   Zr   O 
     6    10     4    18    26    30
Selective dynamics
Direct
  0.6227644681929405  0.8674643039429171  0.3759033260777258   F   F   F
  0.6232908594474155  0.3813507944843096  0.5435197804214259   T   T   T
  0.6119412015469525  0.6592068435495944  0.6372153435601382   T   T   T
  0.6183969974481442  0.0836375951303197  0.4496595223020776   F   F   F
  0.9720810576924472  0.6403082238324144  0.5431587734763075   T   T   T
  0.9796378016624132  0.1205664799124548  0.3776759944968475   F   F   F
  0.7285730839017219  0.3433830738484147  0.4581681964168567   F   F   F
  0.7430586635778557  0.9169042264443185  0.6397843958985400   T   T   T
  0.5173959732146116  0.6080587505955819  0.3671982609221018   F   F   F
  0.4969861259380116  0.1222824111830714  0.5581732577160294   T   T   T
  0.6181107759263895  0.3429729342184160  0.3688918347753258   F   F   F
  0.6114354222903794  0.8687056481548640  0.5399254098459187   T   T   T
  0.7423114776813264  0.8434571027837592  0.4619929955349420   F   F   F
  0.7695369588016604  0.4070303690610511  0.6530140543851981   T   T   T
  0.3940529823058725  0.8473867177948620  0.3689603213971537   F   F   F
  0.3967471122270079  0.3660894085540272  0.5320593863610876   T   T   T
  0.6192876100775209  0.6016249657127588  0.4575279823759288   F   F   F
  0.6304339534246459  0.1422646970195869  0.6468480919834412   T   T   T
  0.2794419527143148  0.8336226940197378  0.4508832749927691   F   F   F
  0.2863752529280993  0.3654074451741343  0.6237984897438882   T   T   T
  0.2687181136366109  0.5890564449493283  0.5412179278383856   T   T   T
  0.2832424640461184  0.0772557258675732  0.3614993054914777   F   F   F
  0.7510110735663947  0.5917977164207513  0.5586600324781692   T   T   T
  0.7400235534014996  0.1154997349134348  0.3664649874525097   F   F   F
  0.4959175586426454  0.8358258009505022  0.4579001786989210   F   F   F
  0.5170940129987741  0.3895199944075436  0.6451359435617078   T   T   T
  0.8686481485709397  0.6829086106893869  0.6602583515007375   T   T   T
  0.8472460508127426  0.1101704835842838  0.4546023874391452   F   F   F
  0.8524358272350767  0.3490710258468823  0.3763926535981881   F   F   F
  0.8339602220554633  0.8413127276450494  0.5454891556201592   T   T   T
  0.5217510461923496  0.3394265770880409  0.4610525165558812   F   F   F
  0.5249159409685324  0.9195080743639517  0.6438736893289957   T   T   T
  0.5032315511346632  0.6169936901126516  0.5370914219372047   T   T   T
  0.4994388222783499  0.1020021438704362  0.3646426983734727   F   F   F
  0.4001666307672522  0.5802841186442933  0.4513025303916010   F   F   F
  0.4026452881242953  0.1194464826934512  0.6547231431793382   T   T   T
  0.2550581097348470  0.3659573793860957  0.4639910950655661   F   F   F
  0.2381058753057495  0.9297726706357383  0.6434671040671943   T   T   T
  0.2518259883220253  0.6139765977479001  0.3762730847385996   F   F   F
  0.2469614178029818  0.1323287237517217  0.5420100328512947   T   T   T
  0.8653988837868241  0.8590464592306759  0.3703682871931306   F   F   F
  0.8654785025871264  0.3653792160264866  0.5468158194482847   T   T   T
  0.3805981278129806  0.3518669605080902  0.3733126396781756   F   F   F
  0.3821332426608443  0.8637116358875414  0.5458017024404330   T   T   T
  0.3851508791679585  0.6781244546234844  0.6462561875632161   T   T   T
  0.3840800821604802  0.1035751104374185  0.4557961755970084   F   F   F
  0.1165738106051037  0.6111057400516628  0.4645705434229868   F   F   F
  0.1122962548736496  0.1705505612699000  0.6406999142339880   T   T   T
  0.9962986111445460  0.5929586291254907  0.3681123388838898   F   F   F
  0.9840840730664857  0.0856176181857053  0.5503997729380722   T   T   T
  0.1186931133006368  0.8719630241236089  0.3746770427834463   F   F   F
  0.0982711384148316  0.3818848189361792  0.5534159852570661   T   T   T
  0.9997795223845003  0.3305138945862467  0.4530698690095534   F   F   F
  0.0295437622641786  0.8786131271158651  0.6440215197121637   T   T   T
  0.1448227166810483  0.3317624926107570  0.3678856063387315   F   F   F
  0.1493770088789129  0.8501044998536941  0.5486790793429890   T   T   T
  0.9788804650651883  0.8760850429732940  0.4652082991240363   F   F   F
  0.9839622387116633  0.4304559107754609  0.6580850228248568   T   T   T
  0.1555945754959497  0.6273471390877869  0.6352885440755373   T   T   T
  0.1472104788064073  0.0917321443326102  0.4507227618542444   F   F   F
  0.7313524484961960  0.6057849526416419  0.3667998753119761   F   F   F
  0.7418302588088524  0.1113486276519754  0.5438607182315383   T   T   T
  0.8692325949844033  0.5919616818507762  0.4582581416374509   F   F   F
  0.8899207302028288  0.1406094375985502  0.6563231338564316   T   T   T
  0.3797668583795195  0.8996443164551177  0.6611732477939779   T   T   T
  0.0077483557367739  0.2389021732774866  0.6922510574729590   T   T   T
  0.2549706194926299  0.1395399041744995  0.6611409676073081   T   T   T
  0.0145387536143968  0.6534941583470536  0.6640642079886961   T   T   T
  0.2785614303802781  0.5425530622838045  0.6701751076442547   T   T   T
  0.3992426539730469  0.3267985735604338  0.6710039544966365   T   T   T
  0.7526275129493246  0.0897717126103346  0.6861207508743442   T   T   T
  0.5239566352414784  0.0796817595757791  0.6909552481769244   T   T   T
  0.1596321855440924  0.8143429564018863  0.6819149926369714   T   T   T
  0.6431076626166276  0.3463385349698690  0.6767414133798683   T   T   T
  0.5121827245006885  0.5826725654739857  0.6714724226631945   T   T   T
  0.8644337483691908  0.5070218321265593  0.6983090046196183   T   T   T
  0.8846250722578176  0.8874780173173178  0.6745196481607807   T   T   T
  0.6313765153264624  0.8123199871360249  0.6727986452855416   T   T   T
  0.7356156505764440  0.6059475567469721  0.6477328353786889   T   T   T
  0.2706078601551594  0.7513210410421600  0.5945769023666505   T   T   T
  0.9859156153342281  0.2754021244507486  0.5983664680392108   T   T   T
  0.1146526997610573  0.6210649293577309  0.5530599673434371   T   T   T
  0.8511227145466600  0.0103696743274568  0.5899963131442493   T   T   T
  0.2496993727713608  0.3714824040135431  0.5427004104914647   T   T   T
  0.5066241571684869  0.7566985144138938  0.5961466243656913   T   T   T
  0.6106129366123644  0.5365312487437907  0.5863895952714010   T   T   T
  0.3770856415785664  0.5253030679510859  0.5897610713820327   T   T   T
  0.9891450768442624  0.8454715016865296  0.5600659465581089   T   T   T
  0.7956197034700806  0.2496404336424114  0.6074420133139050   T   T   T
  0.6324356207257711  0.2152621691152548  0.5790016705931094   T   T   T
  0.7122856777013408  0.7783220387223011  0.5837137519825901   T   T   T
  0.3606802841102032  0.1988026318198174  0.5894162458829367   T   T   T
  0.8949892672969890  0.5782154294874740  0.5969565335503578   T   T   T
  0.5031260812263090  0.3465526668633526  0.5788285732926359   T   T   T
 
  0.00000000E+00  0.00000000E+00  0.00000000E+00
  0.00000000E+00  0.00000000E+00  0.00000000E+00
  0.00000000E+00  0.00000000E+00  0.00000000E+00
  0.00000000E+00  0.00000000E+00  0.00000000E+00
  0.00000000E+00  0.00000000E+00  0.00000000E+00
  0.00000000E+00  0.00000000E+00  0.00000000E+00
  0.00000000E+00  0.00000000E+00  0.00000000E+00
  0.00000000E+00  0.00000000E+00  0.00000000E+00
  0.00000000E+00  0.00000000E+00  0.00000000E+00
  0.00000000E+00  0.00000000E+00  0.00000000E+00
  0.00000000E+00  0.00000000E+00  0.00000000E+00
  0.00000000E+00  0.00000000E+00  0.00000000E+00
  0.00000000E+00  0.00000000E+00  0.00000000E+00
  0.00000000E+00  0.00000000E+00  0.00000000E+00
  0.00000000E+00  0.00000000E+00  0.00000000E+00
  0.00000000E+00  0.00000000E+00  0.00000000E+00
  0.00000000E+00  0.00000000E+00  0.00000000E+00
  0.00000000E+00  0.00000000E+00  0.00000000E+00
  0.00000000E+00  0.00000000E+00  0.00000000E+00
  0.00000000E+00  0.00000000E+00  0.00000000E+00
  0.00000000E+00  0.00000000E+00  0.00000000E+00
  0.00000000E+00  0.00000000E+00  0.00000000E+00
  0.00000000E+00  0.00000000E+00  0.00000000E+00
  0.00000000E+00  0.00000000E+00  0.00000000E+00
  0.00000000E+00  0.00000000E+00  0.00000000E+00
  0.00000000E+00  0.00000000E+00  0.00000000E+00
  0.00000000E+00  0.00000000E+00  0.00000000E+00
  0.00000000E+00  0.00000000E+00  0.00000000E+00
  0.00000000E+00  0.00000000E+00  0.00000000E+00
  0.00000000E+00  0.00000000E+00  0.00000000E+00
  0.00000000E+00  0.00000000E+00  0.00000000E+00
  0.00000000E+00  0.00000000E+00  0.00000000E+00
  0.00000000E+00  0.00000000E+00  0.00000000E+00
  0.00000000E+00  0.00000000E+00  0.00000000E+00
  0.00000000E+00  0.00000000E+00  0.00000000E+00
  0.00000000E+00  0.00000000E+00  0.00000000E+00
  0.00000000E+00  0.00000000E+00  0.00000000E+00
  0.00000000E+00  0.00000000E+00  0.00000000E+00
  0.00000000E+00  0.00000000E+00  0.00000000E+00
  0.00000000E+00  0.00000000E+00  0.00000000E+00
  0.00000000E+00  0.00000000E+00  0.00000000E+00
  0.00000000E+00  0.00000000E+00  0.00000000E+00
  0.00000000E+00  0.00000000E+00  0.00000000E+00
  0.00000000E+00  0.00000000E+00  0.00000000E+00
  0.00000000E+00  0.00000000E+00  0.00000000E+00
  0.00000000E+00  0.00000000E+00  0.00000000E+00
  0.00000000E+00  0.00000000E+00  0.00000000E+00
  0.00000000E+00  0.00000000E+00  0.00000000E+00
  0.00000000E+00  0.00000000E+00  0.00000000E+00
  0.00000000E+00  0.00000000E+00  0.00000000E+00
  0.00000000E+00  0.00000000E+00  0.00000000E+00
  0.00000000E+00  0.00000000E+00  0.00000000E+00
  0.00000000E+00  0.00000000E+00  0.00000000E+00
  0.00000000E+00  0.00000000E+00  0.00000000E+00
  0.00000000E+00  0.00000000E+00  0.00000000E+00
  0.00000000E+00  0.00000000E+00  0.00000000E+00
  0.00000000E+00  0.00000000E+00  0.00000000E+00
  0.00000000E+00  0.00000000E+00  0.00000000E+00
  0.00000000E+00  0.00000000E+00  0.00000000E+00
  0.00000000E+00  0.00000000E+00  0.00000000E+00
  0.00000000E+00  0.00000000E+00  0.00000000E+00
  0.00000000E+00  0.00000000E+00  0.00000000E+00
  0.00000000E+00  0.00000000E+00  0.00000000E+00
  0.00000000E+00  0.00000000E+00  0.00000000E+00
  0.00000000E+00  0.00000000E+00  0.00000000E+00
  0.00000000E+00  0.00000000E+00  0.00000000E+00
  0.00000000E+00  0.00000000E+00  0.00000000E+00
  0.00000000E+00  0.00000000E+00  0.00000000E+00
  0.00000000E+00  0.00000000E+00  0.00000000E+00
  0.00000000E+00  0.00000000E+00  0.00000000E+00
  0.00000000E+00  0.00000000E+00  0.00000000E+00
  0.00000000E+00  0.00000000E+00  0.00000000E+00
  0.00000000E+00  0.00000000E+00  0.00000000E+00
  0.00000000E+00  0.00000000E+00  0.00000000E+00
  0.00000000E+00  0.00000000E+00  0.00000000E+00
  0.00000000E+00  0.00000000E+00  0.00000000E+00
  0.00000000E+00  0.00000000E+00  0.00000000E+00
  0.00000000E+00  0.00000000E+00  0.00000000E+00
  0.00000000E+00  0.00000000E+00  0.00000000E+00
  0.00000000E+00  0.00000000E+00  0.00000000E+00
  0.00000000E+00  0.00000000E+00  0.00000000E+00
  0.00000000E+00  0.00000000E+00  0.00000000E+00
  0.00000000E+00  0.00000000E+00  0.00000000E+00
  0.00000000E+00  0.00000000E+00  0.00000000E+00
  0.00000000E+00  0.00000000E+00  0.00000000E+00
  0.00000000E+00  0.00000000E+00  0.00000000E+00
  0.00000000E+00  0.00000000E+00  0.00000000E+00
  0.00000000E+00  0.00000000E+00  0.00000000E+00
  0.00000000E+00  0.00000000E+00  0.00000000E+00
  0.00000000E+00  0.00000000E+00  0.00000000E+00
  0.00000000E+00  0.00000000E+00  0.00000000E+00
  0.00000000E+00  0.00000000E+00  0.00000000E+00
  0.00000000E+00  0.00000000E+00  0.00000000E+00
  0.00000000E+00  0.00000000E+00  0.00000000E+00
