Al Nb Ta Ti Zr                          
   1.00000000000000     
    13.7713508606000001    0.0000000000000000    0.0000000000000000
     0.0000000000000000    9.5644817351999993    0.0000000000000000
     0.0000000000000000    0.0000000000000000   27.6625704340000027
   Al   Nb   Ta   Ti   Zr   O 
     6    10     4    18    26    23
Selective dynamics
Direct
  0.6227644681929405  0.8674643039429171  0.3759033260777258   F   F   F
  0.6216703399958983  0.3717103911575045  0.5448236985926627   T   T   T
  0.5875263961018076  0.6461398742370291  0.6399958411730235   T   T   T
  0.6183969974481442  0.0836375951303197  0.4496595223020776   F   F   F
  0.9740396037899854  0.6443152919079186  0.5467604468360080   T   T   T
  0.9796378016624132  0.1205664799124548  0.3776759944968475   F   F   F
  0.7285730839017219  0.3433830738484147  0.4581681964168567   F   F   F
  0.7240533233772022  0.8567899183673733  0.6379945789088637   T   T   T
  0.5173959732146116  0.6080587505955819  0.3671982609221018   F   F   F
  0.5126267715056876  0.1163887080008999  0.5476341869187727   T   T   T
  0.6181107759263895  0.3429729342184160  0.3688918347753258   F   F   F
  0.6187189970621790  0.8673867696146786  0.5476171990499588   T   T   T
  0.7423114776813264  0.8434571027837592  0.4619929955349420   F   F   F
  0.7533286026567457  0.4013859856792688  0.6404023080549975   T   T   T
  0.3940529823058725  0.8473867177948620  0.3689603213971537   F   F   F
  0.4045120463989545  0.3430201286801064  0.5382220412822517   T   T   T
  0.6192876100775209  0.6016249657127588  0.4575279823759288   F   F   F
  0.6311341212859437  0.1422196909200333  0.6354400329555839   T   T   T
  0.2794419527143148  0.8336226940197378  0.4508832749927691   F   F   F
  0.2753848881391519  0.3656601233863004  0.6213196575716758   T   T   T
  0.2776847458392080  0.5801383502028710  0.5415780727699879   T   T   T
  0.2832424640461184  0.0772557258675732  0.3614993054914777   F   F   F
  0.7214236416675721  0.6232554609275388  0.5583008806299117   T   T   T
  0.7400235534014996  0.1154997349134348  0.3664649874525097   F   F   F
  0.4959175586426454  0.8358258009505022  0.4579001786989210   F   F   F
  0.4908130661000505  0.3854209711691461  0.6279945111860831   T   T   T
  0.8689421027873797  0.6525063653408852  0.6333767603047861   T   T   T
  0.8472460508127426  0.1101704835842838  0.4546023874391452   F   F   F
  0.8524358272350767  0.3490710258468823  0.3763926535981881   F   F   F
  0.8499287303703642  0.8575627695036617  0.5520507449313110   T   T   T
  0.5217510461923496  0.3394265770880409  0.4610525165558812   F   F   F
  0.5169013094788847  0.9144163036988741  0.6413442578382282   T   T   T
  0.4959680556304968  0.6033006960737800  0.5377853224258643   T   T   T
  0.4994388222783499  0.1020021438704362  0.3646426983734727   F   F   F
  0.4001666307672522  0.5802841186442933  0.4513025303916010   F   F   F
  0.3997104402353241  0.1210011445808531  0.6386370400053408   T   T   T
  0.2550581097348470  0.3659573793860957  0.4639910950655661   F   F   F
  0.2322756925654346  0.9301622803113908  0.6348374274354293   T   T   T
  0.2518259883220253  0.6139765977479001  0.3762730847385996   F   F   F
  0.2542116230528219  0.1293236647195051  0.5470182352145361   T   T   T
  0.8653988837868241  0.8590464592306759  0.3703682871931306   F   F   F
  0.8596302572718730  0.3907582209166764  0.5532312155359865   T   T   T
  0.3805981278129806  0.3518669605080902  0.3733126396781756   F   F   F
  0.3793756788071681  0.8633531506744820  0.5447079970576570   T   T   T
  0.3709769917112067  0.6777400143857057  0.6496089345358099   T   T   T
  0.3840800821604802  0.1035751104374185  0.4557961755970084   F   F   F
  0.1165738106051037  0.6111057400516628  0.4645705434229868   F   F   F
  0.0977100901572351  0.1661204828030526  0.6362118949799929   T   T   T
  0.9962986111445460  0.5929586291254907  0.3681123388838898   F   F   F
 -0.0005187281161816  0.1015963899013371  0.5395184732433844   T   T   T
  0.1186931133006368  0.8719630241236089  0.3746770427834463   F   F   F
  0.0948072275925417  0.3866731220109706  0.5517033556749085   T   T   T
  0.9997795223845003  0.3305138945862467  0.4530698690095534   F   F   F
  0.0286541871169221  0.8641577396396992  0.6451602137444239   T   T   T
  0.1448227166810483  0.3317624926107570  0.3678856063387315   F   F   F
  0.1412193718374351  0.8503347140880246  0.5459715226918341   T   T   T
  0.9788804650651883  0.8760850429732940  0.4652082991240363   F   F   F
  0.9680472917248618  0.4149090488545711  0.6559891172219232   T   T   T
  0.1441884499629717  0.6228496085950145  0.6292842461377952   T   T   T
  0.1472104788064073  0.0917321443326102  0.4507227618542444   F   F   F
  0.7313524484961960  0.6057849526416419  0.3667998753119761   F   F   F
  0.7315255757977362  0.1201518111900939  0.5421927536090985   T   T   T
  0.8692325949844033  0.5919616818507762  0.4582581416374509   F   F   F
  0.8622547713436904  0.1315864768233493  0.6440398537104631   T   T   T
  0.3718410905857326  0.9027227203178341  0.6589850806069191   T   T   T
  0.9834647879758035  0.2122996004771258  0.6849176444990153   T   T   T
  0.2517829066135924  0.1454140214142556  0.6339865140263304   T   T   T
  0.0046558686313578  0.6386755264653878  0.6648144376907112   T   T   T
  0.2648891622327589  0.5379038051720222  0.6682080306356023   T   T   T
  0.3855211428187418  0.3125448070484380  0.6669196085280147   T   T   T
  0.7381872361261479  0.0394684971252363  0.6751329172509689   T   T   T
  0.5187052415874512  0.0866497514593855  0.6787729607342388   T   T   T
  0.1642732578859173  0.8012304109223801  0.6771332264981512   T   T   T
  0.6162900516717156  0.3426028307356032  0.6591239082431324   T   T   T
  0.4901510406556228  0.5679103471846627  0.6718273210576753   T   T   T
  0.8435257347508285  0.5033140491011460  0.6843932056840539   T   T   T
  0.8739968764604796  0.8686862106844787  0.6380094877561192   T   T   T
  0.6054097332823525  0.7999434341191912  0.6775631466316371   T   T   T
  0.7202329316158913  0.6340229705745331  0.6364550846290175   T   T   T
  0.2685370116782263  0.7437906450540831  0.5928366657871775   T   T   T
  0.9827545135081127  0.2750304692064144  0.5920662313741974   T   T   T
  0.1267351207126551  0.6164064264995114  0.5467513670151964   T   T   T
  0.8650845511393565  0.0591733887065287  0.5718472726462012   T   T   T
  0.2495534735113952  0.3644855977388234  0.5417226647804096   T   T   T
  0.4883805827895061  0.7501645766501434  0.5958155663533744   T   T   T
  0.5904553911276099  0.5227677196616040  0.5884557209037395   T   T   T
  0.3830741959801416  0.5160274781242246  0.5923793696832558   T   T   T
 
  0.00000000E+00  0.00000000E+00  0.00000000E+00
  0.00000000E+00  0.00000000E+00  0.00000000E+00
  0.00000000E+00  0.00000000E+00  0.00000000E+00
  0.00000000E+00  0.00000000E+00  0.00000000E+00
  0.00000000E+00  0.00000000E+00  0.00000000E+00
  0.00000000E+00  0.00000000E+00  0.00000000E+00
  0.00000000E+00  0.00000000E+00  0.00000000E+00
  0.00000000E+00  0.00000000E+00  0.00000000E+00
  0.00000000E+00  0.00000000E+00  0.00000000E+00
  0.00000000E+00  0.00000000E+00  0.00000000E+00
  0.00000000E+00  0.00000000E+00  0.00000000E+00
  0.00000000E+00  0.00000000E+00  0.00000000E+00
  0.00000000E+00  0.00000000E+00  0.00000000E+00
  0.00000000E+00  0.00000000E+00  0.00000000E+00
  0.00000000E+00  0.00000000E+00  0.00000000E+00
  0.00000000E+00  0.00000000E+00  0.00000000E+00
  0.00000000E+00  0.00000000E+00  0.00000000E+00
  0.00000000E+00  0.00000000E+00  0.00000000E+00
  0.00000000E+00  0.00000000E+00  0.00000000E+00
  0.00000000E+00  0.00000000E+00  0.00000000E+00
  0.00000000E+00  0.00000000E+00  0.00000000E+00
  0.00000000E+00  0.00000000E+00  0.00000000E+00
  0.00000000E+00  0.00000000E+00  0.00000000E+00
  0.00000000E+00  0.00000000E+00  0.00000000E+00
  0.00000000E+00  0.00000000E+00  0.00000000E+00
  0.00000000E+00  0.00000000E+00  0.00000000E+00
  0.00000000E+00  0.00000000E+00  0.00000000E+00
  0.00000000E+00  0.00000000E+00  0.00000000E+00
  0.00000000E+00  0.00000000E+00  0.00000000E+00
  0.00000000E+00  0.00000000E+00  0.00000000E+00
  0.00000000E+00  0.00000000E+00  0.00000000E+00
  0.00000000E+00  0.00000000E+00  0.00000000E+00
  0.00000000E+00  0.00000000E+00  0.00000000E+00
  0.00000000E+00  0.00000000E+00  0.00000000E+00
  0.00000000E+00  0.00000000E+00  0.00000000E+00
  0.00000000E+00  0.00000000E+00  0.00000000E+00
  0.00000000E+00  0.00000000E+00  0.00000000E+00
  0.00000000E+00  0.00000000E+00  0.00000000E+00
  0.00000000E+00  0.00000000E+00  0.00000000E+00
  0.00000000E+00  0.00000000E+00  0.00000000E+00
  0.00000000E+00  0.00000000E+00  0.00000000E+00
  0.00000000E+00  0.00000000E+00  0.00000000E+00
  0.00000000E+00  0.00000000E+00  0.00000000E+00
  0.00000000E+00  0.00000000E+00  0.00000000E+00
  0.00000000E+00  0.00000000E+00  0.00000000E+00
  0.00000000E+00  0.00000000E+00  0.00000000E+00
  0.00000000E+00  0.00000000E+00  0.00000000E+00
  0.00000000E+00  0.00000000E+00  0.00000000E+00
  0.00000000E+00  0.00000000E+00  0.00000000E+00
  0.00000000E+00  0.00000000E+00  0.00000000E+00
  0.00000000E+00  0.00000000E+00  0.00000000E+00
  0.00000000E+00  0.00000000E+00  0.00000000E+00
  0.00000000E+00  0.00000000E+00  0.00000000E+00
  0.00000000E+00  0.00000000E+00  0.00000000E+00
  0.00000000E+00  0.00000000E+00  0.00000000E+00
  0.00000000E+00  0.00000000E+00  0.00000000E+00
  0.00000000E+00  0.00000000E+00  0.00000000E+00
  0.00000000E+00  0.00000000E+00  0.00000000E+00
  0.00000000E+00  0.00000000E+00  0.00000000E+00
  0.00000000E+00  0.00000000E+00  0.00000000E+00
  0.00000000E+00  0.00000000E+00  0.00000000E+00
  0.00000000E+00  0.00000000E+00  0.00000000E+00
  0.00000000E+00  0.00000000E+00  0.00000000E+00
  0.00000000E+00  0.00000000E+00  0.00000000E+00
  0.00000000E+00  0.00000000E+00  0.00000000E+00
  0.00000000E+00  0.00000000E+00  0.00000000E+00
  0.00000000E+00  0.00000000E+00  0.00000000E+00
  0.00000000E+00  0.00000000E+00  0.00000000E+00
  0.00000000E+00  0.00000000E+00  0.00000000E+00
  0.00000000E+00  0.00000000E+00  0.00000000E+00
  0.00000000E+00  0.00000000E+00  0.00000000E+00
  0.00000000E+00  0.00000000E+00  0.00000000E+00
  0.00000000E+00  0.00000000E+00  0.00000000E+00
  0.00000000E+00  0.00000000E+00  0.00000000E+00
  0.00000000E+00  0.00000000E+00  0.00000000E+00
  0.00000000E+00  0.00000000E+00  0.00000000E+00
  0.00000000E+00  0.00000000E+00  0.00000000E+00
  0.00000000E+00  0.00000000E+00  0.00000000E+00
  0.00000000E+00  0.00000000E+00  0.00000000E+00
  0.00000000E+00  0.00000000E+00  0.00000000E+00
  0.00000000E+00  0.00000000E+00  0.00000000E+00
  0.00000000E+00  0.00000000E+00  0.00000000E+00
  0.00000000E+00  0.00000000E+00  0.00000000E+00
  0.00000000E+00  0.00000000E+00  0.00000000E+00
  0.00000000E+00  0.00000000E+00  0.00000000E+00
  0.00000000E+00  0.00000000E+00  0.00000000E+00
  0.00000000E+00  0.00000000E+00  0.00000000E+00
