Al Nb Ta Ti Zr                          
   1.00000000000000     
    13.7713508606000001    0.0000000000000000    0.0000000000000000
     0.0000000000000000    9.5644817351999993    0.0000000000000000
     0.0000000000000000    0.0000000000000000   27.6625704340000027
   Al   Nb   Ta   Ti   Zr   O 
     6    10     4    18    26    20
Selective dynamics
Direct
  0.6227644681929405  0.8674643039429171  0.3759033260777258   F   F   F
  0.6185286386506390  0.4012225547972734  0.5467961737465413   T   T   T
  0.5884086436595818  0.6350463859274461  0.6237998763949497   T   T   T
  0.6183969974481442  0.0836375951303197  0.4496595223020776   F   F   F
  0.9673490587020941  0.6373617135314147  0.5458467018923747   T   T   T
  0.9796378016624132  0.1205664799124548  0.3776759944968475   F   F   F
  0.7285730839017219  0.3433830738484147  0.4581681964168567   F   F   F
  0.7252751830224994  0.8478895776676151  0.6335191176486449   T   T   T
  0.5173959732146116  0.6080587505955819  0.3671982609221018   F   F   F
  0.5094783577426816  0.1288588204543548  0.5473511913633186   T   T   T
  0.6181107759263895  0.3429729342184160  0.3688918347753258   F   F   F
  0.6192691552919400  0.8715460882074035  0.5430565305835695   T   T   T
  0.7423114776813264  0.8434571027837592  0.4619929955349420   F   F   F
  0.7418521281827816  0.3963112347040077  0.6348510327169889   T   T   T
  0.3940529823058725  0.8473867177948620  0.3689603213971537   F   F   F
  0.4095249195499036  0.3715053037658400  0.5456148959989960   T   T   T
  0.6192876100775209  0.6016249657127588  0.4575279823759288   F   F   F
  0.6330963770997211  0.1247441241116299  0.6365634225381576   T   T   T
  0.2794419527143148  0.8336226940197378  0.4508832749927691   F   F   F
  0.2722795313262472  0.3605199716010516  0.6243033440717315   T   T   T
  0.2739916210159322  0.5805724392094008  0.5407123325713259   T   T   T
  0.2832424640461184  0.0772557258675732  0.3614993054914777   F   F   F
  0.7391955575376820  0.6328539435261116  0.5481892611126955   T   T   T
  0.7400235534014996  0.1154997349134348  0.3664649874525097   F   F   F
  0.4959175586426454  0.8358258009505022  0.4579001786989210   F   F   F
  0.4937674932441492  0.3700303753108081  0.6383548039758261   T   T   T
  0.8682436052289201  0.6513488646291588  0.6300723673092651   T   T   T
  0.8472460508127426  0.1101704835842838  0.4546023874391452   F   F   F
  0.8524358272350767  0.3490710258468823  0.3763926535981881   F   F   F
  0.8574950754493594  0.8758990552445789  0.5519263222622214   T   T   T
  0.5217510461923496  0.3394265770880409  0.4610525165558812   F   F   F
  0.5233620323980607  0.8945044012817732  0.6340815806594177   T   T   T
  0.4961935502002187  0.6338161347823892  0.5364078309566090   T   T   T
  0.4994388222783499  0.1020021438704362  0.3646426983734727   F   F   F
  0.4001666307672522  0.5802841186442933  0.4513025303916010   F   F   F
  0.3984993935027970  0.1075771552665138  0.6353754984225886   T   T   T
  0.2550581097348470  0.3659573793860957  0.4639910950655661   F   F   F
  0.2304888002783654  0.9196099279325107  0.6346939490459882   T   T   T
  0.2518259883220253  0.6139765977479001  0.3762730847385996   F   F   F
  0.2563435348023176  0.1348709831597233  0.5463824710900225   T   T   T
  0.8653988837868241  0.8590464592306759  0.3703682871931306   F   F   F
  0.8644484284304629  0.3662597093417020  0.5511116765991108   T   T   T
  0.3805981278129806  0.3518669605080902  0.3733126396781756   F   F   F
  0.3738993409085567  0.8666507402793261  0.5484223162373076   T   T   T
  0.3745804694450247  0.6518852658224654  0.6332561373337701   T   T   T
  0.3840800821604802  0.1035751104374185  0.4557961755970084   F   F   F
  0.1165738106051037  0.6111057400516628  0.4645705434229868   F   F   F
  0.0977227956600922  0.1621432326071614  0.6368385678979032   T   T   T
  0.9962986111445460  0.5929586291254907  0.3681123388838898   F   F   F
  0.0076927616711790  0.1056048337984892  0.5376607516684000   T   T   T
  0.1186931133006368  0.8719630241236089  0.3746770427834463   F   F   F
  0.0996095429111275  0.3878585851813635  0.5528025364243904   T   T   T
  0.9997795223845003  0.3305138945862467  0.4530698690095534   F   F   F
  0.0271752501330869  0.8619684502976864  0.6453443947699125   T   T   T
  0.1448227166810483  0.3317624926107570  0.3678856063387315   F   F   F
  0.1334181620581613  0.8492694892925142  0.5473316584331240   T   T   T
  0.9788804650651883  0.8760850429732940  0.4652082991240363   F   F   F
  0.9633462083356159  0.4133719481517379  0.6547802077287782   T   T   T
  0.1430434210263694  0.6178910256554746  0.6304249859001726   T   T   T
  0.1472104788064073  0.0917321443326102  0.4507227618542444   F   F   F
  0.7313524484961960  0.6057849526416419  0.3667998753119761   F   F   F
  0.7198856560987406  0.1325686955879633  0.5421387405209737   T   T   T
  0.8692325949844033  0.5919616818507762  0.4582581416374509   F   F   F
  0.8595965124968237  0.1212086339800869  0.6407456795130551   T   T   T
  0.3773991820496521  0.8858375248379869  0.6357977679702416   T   T   T
  0.9778237557653372  0.2118177949091492  0.6830895492470156   T   T   T
  0.2515751376810613  0.1323013667531737  0.6332635688728749   T   T   T
  0.0014821748122198  0.6361172280688103  0.6647940443236388   T   T   T
  0.2676138001377701  0.5306363051079792  0.6671918901418354   T   T   T
  0.3822346710214699  0.2955284993048582  0.6691876487144506   T   T   T
  0.7394672023827225  0.0248403900610701  0.6750481359228451   T   T   T
  0.5119536385106047  0.0665035218464337  0.6749249626642364   T   T   T
  0.1613714965244540  0.7998314642603639  0.6781314282694998   T   T   T
  0.6190061846644910  0.3211820458496964  0.6652115234909484   T   T   T
  0.4977744019936751  0.5552854720254911  0.6637291382095100   T   T   T
  0.8341984653066857  0.4992201748662068  0.6785348920523419   T   T   T
  0.8749440361694285  0.8743598090113390  0.6330236669892989   T   T   T
  0.6062138606817435  0.7796439557269723  0.6703674379855494   T   T   T
  0.7211178290851598  0.6271582543610437  0.6260189600379069   T   T   T
  0.2553531876816496  0.7439254996197757  0.5893888559931422   T   T   T
  0.9908512302646354  0.2750843264129076  0.5922427480643417   T   T   T
  0.1209941351904395  0.6146582810537058  0.5470023027875501   T   T   T
  0.8643260245740958  0.0925965155467216  0.5651067727341609   T   T   T
  0.2546990742888072  0.3660607142272532  0.5417236403023213   T   T   T
 
  0.00000000E+00  0.00000000E+00  0.00000000E+00
  0.00000000E+00  0.00000000E+00  0.00000000E+00
  0.00000000E+00  0.00000000E+00  0.00000000E+00
  0.00000000E+00  0.00000000E+00  0.00000000E+00
  0.00000000E+00  0.00000000E+00  0.00000000E+00
  0.00000000E+00  0.00000000E+00  0.00000000E+00
  0.00000000E+00  0.00000000E+00  0.00000000E+00
  0.00000000E+00  0.00000000E+00  0.00000000E+00
  0.00000000E+00  0.00000000E+00  0.00000000E+00
  0.00000000E+00  0.00000000E+00  0.00000000E+00
  0.00000000E+00  0.00000000E+00  0.00000000E+00
  0.00000000E+00  0.00000000E+00  0.00000000E+00
  0.00000000E+00  0.00000000E+00  0.00000000E+00
  0.00000000E+00  0.00000000E+00  0.00000000E+00
  0.00000000E+00  0.00000000E+00  0.00000000E+00
  0.00000000E+00  0.00000000E+00  0.00000000E+00
  0.00000000E+00  0.00000000E+00  0.00000000E+00
  0.00000000E+00  0.00000000E+00  0.00000000E+00
  0.00000000E+00  0.00000000E+00  0.00000000E+00
  0.00000000E+00  0.00000000E+00  0.00000000E+00
  0.00000000E+00  0.00000000E+00  0.00000000E+00
  0.00000000E+00  0.00000000E+00  0.00000000E+00
  0.00000000E+00  0.00000000E+00  0.00000000E+00
  0.00000000E+00  0.00000000E+00  0.00000000E+00
  0.00000000E+00  0.00000000E+00  0.00000000E+00
  0.00000000E+00  0.00000000E+00  0.00000000E+00
  0.00000000E+00  0.00000000E+00  0.00000000E+00
  0.00000000E+00  0.00000000E+00  0.00000000E+00
  0.00000000E+00  0.00000000E+00  0.00000000E+00
  0.00000000E+00  0.00000000E+00  0.00000000E+00
  0.00000000E+00  0.00000000E+00  0.00000000E+00
  0.00000000E+00  0.00000000E+00  0.00000000E+00
  0.00000000E+00  0.00000000E+00  0.00000000E+00
  0.00000000E+00  0.00000000E+00  0.00000000E+00
  0.00000000E+00  0.00000000E+00  0.00000000E+00
  0.00000000E+00  0.00000000E+00  0.00000000E+00
  0.00000000E+00  0.00000000E+00  0.00000000E+00
  0.00000000E+00  0.00000000E+00  0.00000000E+00
  0.00000000E+00  0.00000000E+00  0.00000000E+00
  0.00000000E+00  0.00000000E+00  0.00000000E+00
  0.00000000E+00  0.00000000E+00  0.00000000E+00
  0.00000000E+00  0.00000000E+00  0.00000000E+00
  0.00000000E+00  0.00000000E+00  0.00000000E+00
  0.00000000E+00  0.00000000E+00  0.00000000E+00
  0.00000000E+00  0.00000000E+00  0.00000000E+00
  0.00000000E+00  0.00000000E+00  0.00000000E+00
  0.00000000E+00  0.00000000E+00  0.00000000E+00
  0.00000000E+00  0.00000000E+00  0.00000000E+00
  0.00000000E+00  0.00000000E+00  0.00000000E+00
  0.00000000E+00  0.00000000E+00  0.00000000E+00
  0.00000000E+00  0.00000000E+00  0.00000000E+00
  0.00000000E+00  0.00000000E+00  0.00000000E+00
  0.00000000E+00  0.00000000E+00  0.00000000E+00
  0.00000000E+00  0.00000000E+00  0.00000000E+00
  0.00000000E+00  0.00000000E+00  0.00000000E+00
  0.00000000E+00  0.00000000E+00  0.00000000E+00
  0.00000000E+00  0.00000000E+00  0.00000000E+00
  0.00000000E+00  0.00000000E+00  0.00000000E+00
  0.00000000E+00  0.00000000E+00  0.00000000E+00
  0.00000000E+00  0.00000000E+00  0.00000000E+00
  0.00000000E+00  0.00000000E+00  0.00000000E+00
  0.00000000E+00  0.00000000E+00  0.00000000E+00
  0.00000000E+00  0.00000000E+00  0.00000000E+00
  0.00000000E+00  0.00000000E+00  0.00000000E+00
  0.00000000E+00  0.00000000E+00  0.00000000E+00
  0.00000000E+00  0.00000000E+00  0.00000000E+00
  0.00000000E+00  0.00000000E+00  0.00000000E+00
  0.00000000E+00  0.00000000E+00  0.00000000E+00
  0.00000000E+00  0.00000000E+00  0.00000000E+00
  0.00000000E+00  0.00000000E+00  0.00000000E+00
  0.00000000E+00  0.00000000E+00  0.00000000E+00
  0.00000000E+00  0.00000000E+00  0.00000000E+00
  0.00000000E+00  0.00000000E+00  0.00000000E+00
  0.00000000E+00  0.00000000E+00  0.00000000E+00
  0.00000000E+00  0.00000000E+00  0.00000000E+00
  0.00000000E+00  0.00000000E+00  0.00000000E+00
  0.00000000E+00  0.00000000E+00  0.00000000E+00
  0.00000000E+00  0.00000000E+00  0.00000000E+00
  0.00000000E+00  0.00000000E+00  0.00000000E+00
  0.00000000E+00  0.00000000E+00  0.00000000E+00
  0.00000000E+00  0.00000000E+00  0.00000000E+00
  0.00000000E+00  0.00000000E+00  0.00000000E+00
  0.00000000E+00  0.00000000E+00  0.00000000E+00
  0.00000000E+00  0.00000000E+00  0.00000000E+00
