general:
  ISTART = 0
  ICHARG = 2
  SYSTEM = (110) surface
  ENCUT = 600
  ISMEAR = 2 ; SIGMA = 0.1
  IALGO = 48
  EDIFF = 1E-04
  EDIFFG = -1E-02
  NSW = 100
  NELMIN = 8
  POTIM = 0.1
  IBRION = 1
  NCORE = 48
  LREAL = AUTO
  LCHARG = .FALSE.
  LWAVE = .FALSE.
  
  