Al Nb Ta Ti Zr                          
   1.00000000000000     
    13.7713508606000001    0.0000000000000000    0.0000000000000000
     0.0000000000000000    9.5644817351999993    0.0000000000000000
     0.0000000000000000    0.0000000000000000   27.6625704340000027
   Al   Nb   Ta   Ti   Zr   O 
     6    10     4    18    26    26
Selective dynamics
Direct
  0.6227644681929405  0.8674643039429171  0.3759033260777258   F   F   F
  0.6264463816916909  0.3934728427609742  0.5373638972188723   T   T   T
  0.5969476453798421  0.6540904653756429  0.6385328576101157   T   T   T
  0.6183969974481442  0.0836375951303197  0.4496595223020776   F   F   F
  0.9746762911009582  0.6366104501772782  0.5446227606990109   T   T   T
  0.9796378016624132  0.1205664799124548  0.3776759944968475   F   F   F
  0.7285730839017219  0.3433830738484147  0.4581681964168567   F   F   F
  0.7359578729379288  0.8849552799477434  0.6347312648639135   T   T   T
  0.5173959732146116  0.6080587505955819  0.3671982609221018   F   F   F
  0.5032519314742758  0.1125469832728173  0.5499013331554794   T   T   T
  0.6181107759263895  0.3429729342184160  0.3688918347753258   F   F   F
  0.6104923651055693  0.8682035488927946  0.5463891423842467   T   T   T
  0.7423114776813264  0.8434571027837592  0.4619929955349420   F   F   F
  0.7583154553458560  0.4260994708786808  0.6462479993634004   T   T   T
  0.3940529823058725  0.8473867177948620  0.3689603213971537   F   F   F
  0.4016093046135454  0.3445267237695926  0.5362999926861926   T   T   T
  0.6192876100775209  0.6016249657127588  0.4575279823759288   F   F   F
  0.6260712487966509  0.1401027724722783  0.6407733827634138   T   T   T
  0.2794419527143148  0.8336226940197378  0.4508832749927691   F   F   F
  0.2844113176552135  0.3673815916886490  0.6202933548727917   T   T   T
  0.2759388445392829  0.5797371483437831  0.5417922077252632   T   T   T
  0.2832424640461184  0.0772557258675732  0.3614993054914777   F   F   F
  0.7275708392137816  0.6292701425168585  0.5575566212270607   T   T   T
  0.7400235534014996  0.1154997349134348  0.3664649874525097   F   F   F
  0.4959175586426454  0.8358258009505022  0.4579001786989210   F   F   F
  0.5069486301075072  0.3818438248047149  0.6262243368508552   T   T   T
  0.8718841538896150  0.6847616966352069  0.6421627529810011   T   T   T
  0.8472460508127426  0.1101704835842838  0.4546023874391452   F   F   F
  0.8524358272350767  0.3490710258468823  0.3763926535981881   F   F   F
  0.8412914273014082  0.8459192548984399  0.5419798962080070   T   T   T
  0.5217510461923496  0.3394265770880409  0.4610525165558812   F   F   F
  0.5223931739428505  0.9106552981355932  0.6459096110833705   T   T   T
  0.4965335744667206  0.6018225561227317  0.5382464136606150   T   T   T
  0.4994388222783499  0.1020021438704362  0.3646426983734727   F   F   F
  0.4001666307672522  0.5802841186442933  0.4513025303916010   F   F   F
  0.4048386136005495  0.1218947711990084  0.6416179456124063   T   T   T
  0.2550581097348470  0.3659573793860957  0.4639910950655661   F   F   F
  0.2374785953472260  0.9310007687131244  0.6367075543439181   T   T   T
  0.2518259883220253  0.6139765977479001  0.3762730847385996   F   F   F
  0.2533409077485646  0.1285166933837128  0.5473772492119148   T   T   T
  0.8653988837868241  0.8590464592306759  0.3703682871931306   F   F   F
  0.8603416550063240  0.3882967265179958  0.5558135973460800   T   T   T
  0.3805981278129806  0.3518669605080902  0.3733126396781756   F   F   F
  0.3801284436610513  0.8637068881077139  0.5450379711923450   T   T   T
  0.3819513662468591  0.6764576836874380  0.6481121123659178   T   T   T
  0.3840800821604802  0.1035751104374185  0.4557961755970084   F   F   F
  0.1165738106051037  0.6111057400516628  0.4645705434229868   F   F   F
  0.1029383403208351  0.1734434560533539  0.6395242514578099   T   T   T
  0.9962986111445460  0.5929586291254907  0.3681123388838898   F   F   F
  0.9840343583525454  0.0802884036715905  0.5506309432160532   T   T   T
  0.1186931133006368  0.8719630241236089  0.3746770427834463   F   F   F
  0.0915246744898864  0.3798973280714846  0.5531226875748774   T   T   T
  0.9997795223845003  0.3305138945862467  0.4530698690095534   F   F   F
  0.0373092831464528  0.8779064690917108  0.6462107556180254   T   T   T
  0.1448227166810483  0.3317624926107570  0.3678856063387315   F   F   F
  0.1494401961102147  0.8472809528284262  0.5465510797476899   T   T   T
  0.9788804650651883  0.8760850429732940  0.4652082991240363   F   F   F
  0.9690123942420343  0.4267680830315719  0.6574298401737689   T   T   T
  0.1558360366541834  0.6226736078517691  0.6317343825318097   T   T   T
  0.1472104788064073  0.0917321443326102  0.4507227618542444   F   F   F
  0.7313524484961960  0.6057849526416419  0.3667998753119761   F   F   F
  0.7320882528071877  0.1181195564665308  0.5436170038707262   T   T   T
  0.8692325949844033  0.5919616818507762  0.4582581416374509   F   F   F
  0.8758016074559112  0.1310476053927644  0.6524050502467967   T   T   T
  0.3753913026107855  0.9029114212811367  0.6591048178501038   T   T   T
  0.9924252907713970  0.2294414498707629  0.6898611200693575   T   T   T
  0.2566416054287549  0.1486505281892798  0.6347633786316066   T   T   T
  0.0118438786839858  0.6484334858652971  0.6564276444566643   T   T   T
  0.2760524698687811  0.5379853789209481  0.6691072752380975   T   T   T
  0.3962136728338405  0.3164081365664771  0.6646608345937609   T   T   T
  0.7404646094959227  0.0636137045327142  0.6788732440066575   T   T   T
  0.5189080782693172  0.0829851260208531  0.6845670636969120   T   T   T
  0.1687250629182349  0.8031685795757778  0.6790139909405445   T   T   T
  0.6295360681676920  0.3439048543081459  0.6669212510650102   T   T   T
  0.5018443170158571  0.5678564501953738  0.6699474057862131   T   T   T
  0.8494566906623656  0.5324804384312922  0.6891886653107224   T   T   T
  0.8848498075692096  0.8805543644681997  0.6657908598198718   T   T   T
  0.6229781244696370  0.8052133189961970  0.6764429704089268   T   T   T
  0.7296145278371585  0.6424394221410484  0.6331946607762919   T   T   T
  0.2732426178283774  0.7426610918998369  0.5932646370895699   T   T   T
  0.9776263829462776  0.2697399483943153  0.5971085708862814   T   T   T
  0.1221141622581986  0.6172073577944098  0.5497202466318879   T   T   T
  0.8443133330685609  0.0131079020868998  0.5856296137476988   T   T   T
  0.2464691703925809  0.3645494254762016  0.5420828973497530   T   T   T
  0.4981470174748712  0.7540164381631138  0.5956981280402267   T   T   T
  0.5983936789751774  0.5254112722064790  0.5882476895771140   T   T   T
  0.3897611638415155  0.5160366940737698  0.5906974379374944   T   T   T
  0.9922889230446311  0.8396513022794517  0.5674939584731565   T   T   T
  0.7781667187373481  0.2473462253620754  0.6070791890208604   T   T   T
  0.6092997621090996  0.2467989324103000  0.5786447536698016   T   T   T
 
  0.00000000E+00  0.00000000E+00  0.00000000E+00
  0.00000000E+00  0.00000000E+00  0.00000000E+00
  0.00000000E+00  0.00000000E+00  0.00000000E+00
  0.00000000E+00  0.00000000E+00  0.00000000E+00
  0.00000000E+00  0.00000000E+00  0.00000000E+00
  0.00000000E+00  0.00000000E+00  0.00000000E+00
  0.00000000E+00  0.00000000E+00  0.00000000E+00
  0.00000000E+00  0.00000000E+00  0.00000000E+00
  0.00000000E+00  0.00000000E+00  0.00000000E+00
  0.00000000E+00  0.00000000E+00  0.00000000E+00
  0.00000000E+00  0.00000000E+00  0.00000000E+00
  0.00000000E+00  0.00000000E+00  0.00000000E+00
  0.00000000E+00  0.00000000E+00  0.00000000E+00
  0.00000000E+00  0.00000000E+00  0.00000000E+00
  0.00000000E+00  0.00000000E+00  0.00000000E+00
  0.00000000E+00  0.00000000E+00  0.00000000E+00
  0.00000000E+00  0.00000000E+00  0.00000000E+00
  0.00000000E+00  0.00000000E+00  0.00000000E+00
  0.00000000E+00  0.00000000E+00  0.00000000E+00
  0.00000000E+00  0.00000000E+00  0.00000000E+00
  0.00000000E+00  0.00000000E+00  0.00000000E+00
  0.00000000E+00  0.00000000E+00  0.00000000E+00
  0.00000000E+00  0.00000000E+00  0.00000000E+00
  0.00000000E+00  0.00000000E+00  0.00000000E+00
  0.00000000E+00  0.00000000E+00  0.00000000E+00
  0.00000000E+00  0.00000000E+00  0.00000000E+00
  0.00000000E+00  0.00000000E+00  0.00000000E+00
  0.00000000E+00  0.00000000E+00  0.00000000E+00
  0.00000000E+00  0.00000000E+00  0.00000000E+00
  0.00000000E+00  0.00000000E+00  0.00000000E+00
  0.00000000E+00  0.00000000E+00  0.00000000E+00
  0.00000000E+00  0.00000000E+00  0.00000000E+00
  0.00000000E+00  0.00000000E+00  0.00000000E+00
  0.00000000E+00  0.00000000E+00  0.00000000E+00
  0.00000000E+00  0.00000000E+00  0.00000000E+00
  0.00000000E+00  0.00000000E+00  0.00000000E+00
  0.00000000E+00  0.00000000E+00  0.00000000E+00
  0.00000000E+00  0.00000000E+00  0.00000000E+00
  0.00000000E+00  0.00000000E+00  0.00000000E+00
  0.00000000E+00  0.00000000E+00  0.00000000E+00
  0.00000000E+00  0.00000000E+00  0.00000000E+00
  0.00000000E+00  0.00000000E+00  0.00000000E+00
  0.00000000E+00  0.00000000E+00  0.00000000E+00
  0.00000000E+00  0.00000000E+00  0.00000000E+00
  0.00000000E+00  0.00000000E+00  0.00000000E+00
  0.00000000E+00  0.00000000E+00  0.00000000E+00
  0.00000000E+00  0.00000000E+00  0.00000000E+00
  0.00000000E+00  0.00000000E+00  0.00000000E+00
  0.00000000E+00  0.00000000E+00  0.00000000E+00
  0.00000000E+00  0.00000000E+00  0.00000000E+00
  0.00000000E+00  0.00000000E+00  0.00000000E+00
  0.00000000E+00  0.00000000E+00  0.00000000E+00
  0.00000000E+00  0.00000000E+00  0.00000000E+00
  0.00000000E+00  0.00000000E+00  0.00000000E+00
  0.00000000E+00  0.00000000E+00  0.00000000E+00
  0.00000000E+00  0.00000000E+00  0.00000000E+00
  0.00000000E+00  0.00000000E+00  0.00000000E+00
  0.00000000E+00  0.00000000E+00  0.00000000E+00
  0.00000000E+00  0.00000000E+00  0.00000000E+00
  0.00000000E+00  0.00000000E+00  0.00000000E+00
  0.00000000E+00  0.00000000E+00  0.00000000E+00
  0.00000000E+00  0.00000000E+00  0.00000000E+00
  0.00000000E+00  0.00000000E+00  0.00000000E+00
  0.00000000E+00  0.00000000E+00  0.00000000E+00
  0.00000000E+00  0.00000000E+00  0.00000000E+00
  0.00000000E+00  0.00000000E+00  0.00000000E+00
  0.00000000E+00  0.00000000E+00  0.00000000E+00
  0.00000000E+00  0.00000000E+00  0.00000000E+00
  0.00000000E+00  0.00000000E+00  0.00000000E+00
  0.00000000E+00  0.00000000E+00  0.00000000E+00
  0.00000000E+00  0.00000000E+00  0.00000000E+00
  0.00000000E+00  0.00000000E+00  0.00000000E+00
  0.00000000E+00  0.00000000E+00  0.00000000E+00
  0.00000000E+00  0.00000000E+00  0.00000000E+00
  0.00000000E+00  0.00000000E+00  0.00000000E+00
  0.00000000E+00  0.00000000E+00  0.00000000E+00
  0.00000000E+00  0.00000000E+00  0.00000000E+00
  0.00000000E+00  0.00000000E+00  0.00000000E+00
  0.00000000E+00  0.00000000E+00  0.00000000E+00
  0.00000000E+00  0.00000000E+00  0.00000000E+00
  0.00000000E+00  0.00000000E+00  0.00000000E+00
  0.00000000E+00  0.00000000E+00  0.00000000E+00
  0.00000000E+00  0.00000000E+00  0.00000000E+00
  0.00000000E+00  0.00000000E+00  0.00000000E+00
  0.00000000E+00  0.00000000E+00  0.00000000E+00
  0.00000000E+00  0.00000000E+00  0.00000000E+00
  0.00000000E+00  0.00000000E+00  0.00000000E+00
  0.00000000E+00  0.00000000E+00  0.00000000E+00
  0.00000000E+00  0.00000000E+00  0.00000000E+00
  0.00000000E+00  0.00000000E+00  0.00000000E+00
