Al Nb Ta Ti Zr                          
   1.00000000000000     
    13.7713508606000001    0.0000000000000000    0.0000000000000000
     0.0000000000000000    9.5644817351999993    0.0000000000000000
     0.0000000000000000    0.0000000000000000   27.6625704340000027
   Al   Nb   Ta   Ti   Zr   O 
     6    10     4    18    26     2
Selective dynamics
Direct
  0.6227644681929405  0.8674643039429171  0.3759033260777258   F   F   F
  0.6217305888060579  0.3902381728329152  0.5463904455276082   T   T   T
  0.6164679362876951  0.6453212067395369  0.6270430603393194   T   T   T
  0.6183969974481442  0.0836375951303197  0.4496595223020776   F   F   F
  0.9764081914715790  0.6402459669325619  0.5544644737607571   T   T   T
  0.9796378016624132  0.1205664799124548  0.3776759944968475   F   F   F
  0.7285730839017219  0.3433830738484147  0.4581681964168567   F   F   F
  0.7261440886419616  0.9041378349175111  0.6205504928520943   T   T   T
  0.5173959732146116  0.6080587505955819  0.3671982609221018   F   F   F
  0.5141507704875655  0.1320796517112084  0.5405462917240703   T   T   T
  0.6181107759263895  0.3429729342184160  0.3688918347753258   F   F   F
  0.6205796208830524  0.8751551185329818  0.5378098167973252   T   T   T
  0.7423114776813264  0.8434571027837592  0.4619929955349420   F   F   F
  0.7427168863407386  0.4065737443236370  0.6265772520311751   T   T   T
  0.3940529823058725  0.8473867177948620  0.3689603213971537   F   F   F
  0.3946323475633300  0.3694506227468992  0.5422958756448326   T   T   T
  0.6192876100775209  0.6016249657127588  0.4575279823759288   F   F   F
  0.6293279566393204  0.1615621882425910  0.6221219538078759   T   T   T
  0.2794419527143148  0.8336226940197378  0.4508832749927691   F   F   F
  0.2849238336585359  0.3807877061053235  0.6206254122158177   T   T   T
  0.2804530997979792  0.5919797971472536  0.5410477289819495   T   T   T
  0.2832424640461184  0.0772557258675732  0.3614993054914777   F   F   F
  0.7341165015238478  0.6322984316232365  0.5409676531110608   T   T   T
  0.7400235534014996  0.1154997349134348  0.3664649874525097   F   F   F
  0.4959175586426454  0.8358258009505022  0.4579001786989210   F   F   F
  0.4984198643287390  0.3809877460736369  0.6265389509245907   T   T   T
  0.8306263425229314  0.6604839735292951  0.6254974909333649   T   T   T
  0.8472460508127426  0.1101704835842838  0.4546023874391452   F   F   F
  0.8524358272350767  0.3490710258468823  0.3763926535981881   F   F   F
  0.8513644261397990  0.8660448433625454  0.5506337303271948   T   T   T
  0.5217510461923496  0.3394265770880409  0.4610525165558812   F   F   F
  0.5262197069808434  0.9049271798834071  0.6239286876101314   T   T   T
  0.5002826680426302  0.6255391767684781  0.5400758038300257   T   T   T
  0.4994388222783499  0.1020021438704362  0.3646426983734727   F   F   F
  0.4001666307672522  0.5802841186442933  0.4513025303916010   F   F   F
  0.3901643034739255  0.1248818081278233  0.6196521990222877   T   T   T
  0.2550581097348470  0.3659573793860957  0.4639910950655661   F   F   F
  0.2367239036476238  0.9106063871466393  0.6257180509857531   T   T   T
  0.2518259883220253  0.6139765977479001  0.3762730847385996   F   F   F
  0.2438979279318561  0.1336800991192630  0.5484756181855739   T   T   T
  0.8653988837868241  0.8590464592306759  0.3703682871931306   F   F   F
  0.8637284233609939  0.3827062206739635  0.5452484535718243   T   T   T
  0.3805981278129806  0.3518669605080902  0.3733126396781756   F   F   F
  0.3773810114420775  0.8725729507753570  0.5469800140533468   T   T   T
  0.3882464332984025  0.6535083705348326  0.6297277305501251   T   T   T
  0.3840800821604802  0.1035751104374185  0.4557961755970084   F   F   F
  0.1165738106051037  0.6111057400516628  0.4645705434229868   F   F   F
  0.1084843482278163  0.1774651238069420  0.6383613439091620   T   T   T
  0.9962986111445460  0.5929586291254907  0.3681123388838898   F   F   F
  0.9959947741796021  0.1135832641359957  0.5455643945321927   T   T   T
  0.1186931133006368  0.8719630241236089  0.3746770427834463   F   F   F
  0.1137978731093088  0.3942364090510339  0.5513094004899424   T   T   T
  0.9997795223845003  0.3305138945862467  0.4530698690095534   F   F   F
  0.0014274495746933  0.8763740531805194  0.6242772780972866   T   T   T
  0.1448227166810483  0.3317624926107570  0.3678856063387315   F   F   F
  0.1346692025742625  0.8447256006832813  0.5397435527701695   T   T   T
  0.9788804650651883  0.8760850429732940  0.4652082991240363   F   F   F
  0.9663997544185211  0.4444086577231149  0.6422541082603684   T   T   T
  0.1495205875285134  0.6337001914587203  0.6212585559007046   T   T   T
  0.1472104788064073  0.0917321443326102  0.4507227618542444   F   F   F
  0.7313524484961960  0.6057849526416419  0.3667998753119761   F   F   F
  0.7387070140709164  0.1294148053932849  0.5384166175992293   T   T   T
  0.8692325949844033  0.5919616818507762  0.4582581416374509   F   F   F
  0.8683032381210607  0.1527640141327580  0.6354347710046395   T   T   T
  0.3823024766129859  0.8996854348656637  0.6346137414966576   T   T   T
  0.9857609453829115  0.2497478592675929  0.6742883406137449   T   T   T
 
  0.00000000E+00  0.00000000E+00  0.00000000E+00
  0.00000000E+00  0.00000000E+00  0.00000000E+00
  0.00000000E+00  0.00000000E+00  0.00000000E+00
  0.00000000E+00  0.00000000E+00  0.00000000E+00
  0.00000000E+00  0.00000000E+00  0.00000000E+00
  0.00000000E+00  0.00000000E+00  0.00000000E+00
  0.00000000E+00  0.00000000E+00  0.00000000E+00
  0.00000000E+00  0.00000000E+00  0.00000000E+00
  0.00000000E+00  0.00000000E+00  0.00000000E+00
  0.00000000E+00  0.00000000E+00  0.00000000E+00
  0.00000000E+00  0.00000000E+00  0.00000000E+00
  0.00000000E+00  0.00000000E+00  0.00000000E+00
  0.00000000E+00  0.00000000E+00  0.00000000E+00
  0.00000000E+00  0.00000000E+00  0.00000000E+00
  0.00000000E+00  0.00000000E+00  0.00000000E+00
  0.00000000E+00  0.00000000E+00  0.00000000E+00
  0.00000000E+00  0.00000000E+00  0.00000000E+00
  0.00000000E+00  0.00000000E+00  0.00000000E+00
  0.00000000E+00  0.00000000E+00  0.00000000E+00
  0.00000000E+00  0.00000000E+00  0.00000000E+00
  0.00000000E+00  0.00000000E+00  0.00000000E+00
  0.00000000E+00  0.00000000E+00  0.00000000E+00
  0.00000000E+00  0.00000000E+00  0.00000000E+00
  0.00000000E+00  0.00000000E+00  0.00000000E+00
  0.00000000E+00  0.00000000E+00  0.00000000E+00
  0.00000000E+00  0.00000000E+00  0.00000000E+00
  0.00000000E+00  0.00000000E+00  0.00000000E+00
  0.00000000E+00  0.00000000E+00  0.00000000E+00
  0.00000000E+00  0.00000000E+00  0.00000000E+00
  0.00000000E+00  0.00000000E+00  0.00000000E+00
  0.00000000E+00  0.00000000E+00  0.00000000E+00
  0.00000000E+00  0.00000000E+00  0.00000000E+00
  0.00000000E+00  0.00000000E+00  0.00000000E+00
  0.00000000E+00  0.00000000E+00  0.00000000E+00
  0.00000000E+00  0.00000000E+00  0.00000000E+00
  0.00000000E+00  0.00000000E+00  0.00000000E+00
  0.00000000E+00  0.00000000E+00  0.00000000E+00
  0.00000000E+00  0.00000000E+00  0.00000000E+00
  0.00000000E+00  0.00000000E+00  0.00000000E+00
  0.00000000E+00  0.00000000E+00  0.00000000E+00
  0.00000000E+00  0.00000000E+00  0.00000000E+00
  0.00000000E+00  0.00000000E+00  0.00000000E+00
  0.00000000E+00  0.00000000E+00  0.00000000E+00
  0.00000000E+00  0.00000000E+00  0.00000000E+00
  0.00000000E+00  0.00000000E+00  0.00000000E+00
  0.00000000E+00  0.00000000E+00  0.00000000E+00
  0.00000000E+00  0.00000000E+00  0.00000000E+00
  0.00000000E+00  0.00000000E+00  0.00000000E+00
  0.00000000E+00  0.00000000E+00  0.00000000E+00
  0.00000000E+00  0.00000000E+00  0.00000000E+00
  0.00000000E+00  0.00000000E+00  0.00000000E+00
  0.00000000E+00  0.00000000E+00  0.00000000E+00
  0.00000000E+00  0.00000000E+00  0.00000000E+00
  0.00000000E+00  0.00000000E+00  0.00000000E+00
  0.00000000E+00  0.00000000E+00  0.00000000E+00
  0.00000000E+00  0.00000000E+00  0.00000000E+00
  0.00000000E+00  0.00000000E+00  0.00000000E+00
  0.00000000E+00  0.00000000E+00  0.00000000E+00
  0.00000000E+00  0.00000000E+00  0.00000000E+00
  0.00000000E+00  0.00000000E+00  0.00000000E+00
  0.00000000E+00  0.00000000E+00  0.00000000E+00
  0.00000000E+00  0.00000000E+00  0.00000000E+00
  0.00000000E+00  0.00000000E+00  0.00000000E+00
  0.00000000E+00  0.00000000E+00  0.00000000E+00
  0.00000000E+00  0.00000000E+00  0.00000000E+00
  0.00000000E+00  0.00000000E+00  0.00000000E+00
