Al Nb Ta Ti Zr                          
   1.00000000000000     
    13.7713508606000001    0.0000000000000000    0.0000000000000000
     0.0000000000000000    9.5644817351999993    0.0000000000000000
     0.0000000000000000    0.0000000000000000   27.6625704340000027
   Al   Nb   Ta   Ti   Zr   O 
     6    10     4    18    26    29
Selective dynamics
Direct
  0.6227644681929405  0.8674643039429171  0.3759033260777258   F   F   F
  0.6218016711139217  0.3905480038287527  0.5376564081809240   T   T   T
  0.6114098397367247  0.6578578102415844  0.6375722129758733   T   T   T
  0.6183969974481442  0.0836375951303197  0.4496595223020776   F   F   F
  0.9704513387801373  0.6410145643109861  0.5434495708628473   T   T   T
  0.9796378016624132  0.1205664799124548  0.3776759944968475   F   F   F
  0.7285730839017219  0.3433830738484147  0.4581681964168567   F   F   F
  0.7421070959720185  0.9197385916209690  0.6370680886791682   T   T   T
  0.5173959732146116  0.6080587505955819  0.3671982609221018   F   F   F
  0.4995824977285064  0.1217432614051449  0.5519364053352327   T   T   T
  0.6181107759263895  0.3429729342184160  0.3688918347753258   F   F   F
  0.6083722108940616  0.8767677823743574  0.5409255529587182   T   T   T
  0.7423114776813264  0.8434571027837592  0.4619929955349420   F   F   F
  0.7643932985027904  0.4075683283760231  0.6542500766926157   T   T   T
  0.3940529823058725  0.8473867177948620  0.3689603213971537   F   F   F
  0.4036875776806190  0.3573480198998278  0.5340753996343547   T   T   T
  0.6192876100775209  0.6016249657127588  0.4575279823759288   F   F   F
  0.6262777583454155  0.1462583406526252  0.6458291511394681   T   T   T
  0.2794419527143148  0.8336226940197378  0.4508832749927691   F   F   F
  0.2895704761820361  0.3629657136111243  0.6233588574962546   T   T   T
  0.2746006388742410  0.5838975347635782  0.5428391642862979   T   T   T
  0.2832424640461184  0.0772557258675732  0.3614993054914777   F   F   F
  0.7484895929310655  0.5945781511460220  0.5569751889737201   T   T   T
  0.7400235534014996  0.1154997349134348  0.3664649874525097   F   F   F
  0.4959175586426454  0.8358258009505022  0.4579001786989210   F   F   F
  0.5162598355723262  0.3895135319562312  0.6301414723833108   T   T   T
  0.8678922487363296  0.6835089613117609  0.6588251747776590   T   T   T
  0.8472460508127426  0.1101704835842838  0.4546023874391452   F   F   F
  0.8524358272350767  0.3490710258468823  0.3763926535981881   F   F   F
  0.8300096085873016  0.8470166572595995  0.5455493835774544   T   T   T
  0.5217510461923496  0.3394265770880409  0.4610525165558812   F   F   F
  0.5259263947273398  0.9144665784685353  0.6471217007611367   T   T   T
  0.5003922090805671  0.6083281194361742  0.5382797873426273   T   T   T
  0.4994388222783499  0.1020021438704362  0.3646426983734727   F   F   F
  0.4001666307672522  0.5802841186442933  0.4513025303916010   F   F   F
  0.4058703663433688  0.1238861821731423  0.6548755169834405   T   T   T
  0.2550581097348470  0.3659573793860957  0.4639910950655661   F   F   F
  0.2386912272017291  0.9300381692962780  0.6427106998554443   T   T   T
  0.2518259883220253  0.6139765977479001  0.3762730847385996   F   F   F
  0.2498271992309397  0.1305195321004574  0.5420295476266467   T   T   T
  0.8653988837868241  0.8590464592306759  0.3703682871931306   F   F   F
  0.8633589348497567  0.3668470021032456  0.5473747452784932   T   T   T
  0.3805981278129806  0.3518669605080902  0.3733126396781756   F   F   F
  0.3813439033456691  0.8594406754282661  0.5450263451043617   T   T   T
  0.3882402728157622  0.6744145195250856  0.6473216305099808   T   T   T
  0.3840800821604802  0.1035751104374185  0.4557961755970084   F   F   F
  0.1165738106051037  0.6111057400516628  0.4645705434229868   F   F   F
  0.1112263060579575  0.1707865740222849  0.6399657471615586   T   T   T
  0.9962986111445460  0.5929586291254907  0.3681123388838898   F   F   F
  0.9812783204055783  0.0855626867688504  0.5496887776882255   T   T   T
  0.1186931133006368  0.8719630241236089  0.3746770427834463   F   F   F
  0.0993372623954641  0.3800974293237458  0.5531509806372428   T   T   T
  0.9997795223845003  0.3305138945862467  0.4530698690095534   F   F   F
  0.0300295378687829  0.8790454425086530  0.6435219531634609   T   T   T
  0.1448227166810483  0.3317624926107570  0.3678856063387315   F   F   F
  0.1499170607733897  0.8487321200776909  0.5488284181328614   T   T   T
  0.9788804650651883  0.8760850429732940  0.4652082991240363   F   F   F
  0.9812707240915308  0.4307862644509097  0.6571396224092318   T   T   T
  0.1560657395263760  0.6257755266943137  0.6347333762681912   T   T   T
  0.1472104788064073  0.0917321443326102  0.4507227618542444   F   F   F
  0.7313524484961960  0.6057849526416419  0.3667998753119761   F   F   F
  0.7290729024608750  0.1247634288806907  0.5452790588619716   T   T   T
  0.8692325949844033  0.5919616818507762  0.4582581416374509   F   F   F
  0.8865634400152100  0.1421136964835484  0.6548302752724046   T   T   T
  0.3797898572942655  0.9003471109783354  0.6604995601654882   T   T   T
  0.0057603499826656  0.2391286319107647  0.6910169749051267   T   T   T
  0.2558994778682321  0.1426922362342795  0.6595677198220180   T   T   T
  0.0144018696378025  0.6533653171041216  0.6632147707198339   T   T   T
  0.2790742250158817  0.5407987631354443  0.6697818007505636   T   T   T
  0.4043033593367273  0.3270273371472330  0.6677904928621849   T   T   T
  0.7486692580979155  0.0915059679185586  0.6847456654250461   T   T   T
  0.5244018751903595  0.0791394864696149  0.6915068415445513   T   T   T
  0.1600181028308681  0.8136022033652203  0.6809156847410006   T   T   T
  0.6364382490272933  0.3483545862636886  0.6746187031818512   T   T   T
  0.5128855042462672  0.5762431449326106  0.6697130161320979   T   T   T
  0.8625389389332434  0.5077680105569923  0.6977390768132499   T   T   T
  0.8832628692263154  0.8870726030370670  0.6731365726079774   T   T   T
  0.6332684721397801  0.8117322329377112  0.6735066349217219   T   T   T
  0.7353219149159600  0.6059043602882253  0.6460781992101593   T   T   T
  0.2728636850579854  0.7470270804831893  0.5949548246502723   T   T   T
  0.9837228808189804  0.2756657697434226  0.5975562428960566   T   T   T
  0.1170431454033364  0.6191834494005585  0.5524531198328296   T   T   T
  0.8465738885291072  0.0173589799236602  0.5885094372070413   T   T   T
  0.2518531930418615  0.3683953490335878  0.5429479500999470   T   T   T
  0.5070234723255608  0.7599178132953541  0.5960183406551844   T   T   T
  0.6050046629372807  0.5285526313352121  0.5875272931523063   T   T   T
  0.3912555746385217  0.5167251929095957  0.5918436468446403   T   T   T
  0.9881403848003720  0.8464479928514050  0.5598153267493677   T   T   T
  0.7865732546905922  0.2514430570924887  0.6073953563703032   T   T   T
  0.6103801472049213  0.2524638546424646  0.5836556373294801   T   T   T
  0.7072699728319237  0.7767298802890629  0.5833036121354710   T   T   T
  0.3639525358551365  0.1954227941720830  0.5890129085088026   T   T   T
  0.8960901652614874  0.5727433725373934  0.5971193844292852   T   T   T
 
  0.00000000E+00  0.00000000E+00  0.00000000E+00
  0.00000000E+00  0.00000000E+00  0.00000000E+00
  0.00000000E+00  0.00000000E+00  0.00000000E+00
  0.00000000E+00  0.00000000E+00  0.00000000E+00
  0.00000000E+00  0.00000000E+00  0.00000000E+00
  0.00000000E+00  0.00000000E+00  0.00000000E+00
  0.00000000E+00  0.00000000E+00  0.00000000E+00
  0.00000000E+00  0.00000000E+00  0.00000000E+00
  0.00000000E+00  0.00000000E+00  0.00000000E+00
  0.00000000E+00  0.00000000E+00  0.00000000E+00
  0.00000000E+00  0.00000000E+00  0.00000000E+00
  0.00000000E+00  0.00000000E+00  0.00000000E+00
  0.00000000E+00  0.00000000E+00  0.00000000E+00
  0.00000000E+00  0.00000000E+00  0.00000000E+00
  0.00000000E+00  0.00000000E+00  0.00000000E+00
  0.00000000E+00  0.00000000E+00  0.00000000E+00
  0.00000000E+00  0.00000000E+00  0.00000000E+00
  0.00000000E+00  0.00000000E+00  0.00000000E+00
  0.00000000E+00  0.00000000E+00  0.00000000E+00
  0.00000000E+00  0.00000000E+00  0.00000000E+00
  0.00000000E+00  0.00000000E+00  0.00000000E+00
  0.00000000E+00  0.00000000E+00  0.00000000E+00
  0.00000000E+00  0.00000000E+00  0.00000000E+00
  0.00000000E+00  0.00000000E+00  0.00000000E+00
  0.00000000E+00  0.00000000E+00  0.00000000E+00
  0.00000000E+00  0.00000000E+00  0.00000000E+00
  0.00000000E+00  0.00000000E+00  0.00000000E+00
  0.00000000E+00  0.00000000E+00  0.00000000E+00
  0.00000000E+00  0.00000000E+00  0.00000000E+00
  0.00000000E+00  0.00000000E+00  0.00000000E+00
  0.00000000E+00  0.00000000E+00  0.00000000E+00
  0.00000000E+00  0.00000000E+00  0.00000000E+00
  0.00000000E+00  0.00000000E+00  0.00000000E+00
  0.00000000E+00  0.00000000E+00  0.00000000E+00
  0.00000000E+00  0.00000000E+00  0.00000000E+00
  0.00000000E+00  0.00000000E+00  0.00000000E+00
  0.00000000E+00  0.00000000E+00  0.00000000E+00
  0.00000000E+00  0.00000000E+00  0.00000000E+00
  0.00000000E+00  0.00000000E+00  0.00000000E+00
  0.00000000E+00  0.00000000E+00  0.00000000E+00
  0.00000000E+00  0.00000000E+00  0.00000000E+00
  0.00000000E+00  0.00000000E+00  0.00000000E+00
  0.00000000E+00  0.00000000E+00  0.00000000E+00
  0.00000000E+00  0.00000000E+00  0.00000000E+00
  0.00000000E+00  0.00000000E+00  0.00000000E+00
  0.00000000E+00  0.00000000E+00  0.00000000E+00
  0.00000000E+00  0.00000000E+00  0.00000000E+00
  0.00000000E+00  0.00000000E+00  0.00000000E+00
  0.00000000E+00  0.00000000E+00  0.00000000E+00
  0.00000000E+00  0.00000000E+00  0.00000000E+00
  0.00000000E+00  0.00000000E+00  0.00000000E+00
  0.00000000E+00  0.00000000E+00  0.00000000E+00
  0.00000000E+00  0.00000000E+00  0.00000000E+00
  0.00000000E+00  0.00000000E+00  0.00000000E+00
  0.00000000E+00  0.00000000E+00  0.00000000E+00
  0.00000000E+00  0.00000000E+00  0.00000000E+00
  0.00000000E+00  0.00000000E+00  0.00000000E+00
  0.00000000E+00  0.00000000E+00  0.00000000E+00
  0.00000000E+00  0.00000000E+00  0.00000000E+00
  0.00000000E+00  0.00000000E+00  0.00000000E+00
  0.00000000E+00  0.00000000E+00  0.00000000E+00
  0.00000000E+00  0.00000000E+00  0.00000000E+00
  0.00000000E+00  0.00000000E+00  0.00000000E+00
  0.00000000E+00  0.00000000E+00  0.00000000E+00
  0.00000000E+00  0.00000000E+00  0.00000000E+00
  0.00000000E+00  0.00000000E+00  0.00000000E+00
  0.00000000E+00  0.00000000E+00  0.00000000E+00
  0.00000000E+00  0.00000000E+00  0.00000000E+00
  0.00000000E+00  0.00000000E+00  0.00000000E+00
  0.00000000E+00  0.00000000E+00  0.00000000E+00
  0.00000000E+00  0.00000000E+00  0.00000000E+00
  0.00000000E+00  0.00000000E+00  0.00000000E+00
  0.00000000E+00  0.00000000E+00  0.00000000E+00
  0.00000000E+00  0.00000000E+00  0.00000000E+00
  0.00000000E+00  0.00000000E+00  0.00000000E+00
  0.00000000E+00  0.00000000E+00  0.00000000E+00
  0.00000000E+00  0.00000000E+00  0.00000000E+00
  0.00000000E+00  0.00000000E+00  0.00000000E+00
  0.00000000E+00  0.00000000E+00  0.00000000E+00
  0.00000000E+00  0.00000000E+00  0.00000000E+00
  0.00000000E+00  0.00000000E+00  0.00000000E+00
  0.00000000E+00  0.00000000E+00  0.00000000E+00
  0.00000000E+00  0.00000000E+00  0.00000000E+00
  0.00000000E+00  0.00000000E+00  0.00000000E+00
  0.00000000E+00  0.00000000E+00  0.00000000E+00
  0.00000000E+00  0.00000000E+00  0.00000000E+00
  0.00000000E+00  0.00000000E+00  0.00000000E+00
  0.00000000E+00  0.00000000E+00  0.00000000E+00
  0.00000000E+00  0.00000000E+00  0.00000000E+00
  0.00000000E+00  0.00000000E+00  0.00000000E+00
  0.00000000E+00  0.00000000E+00  0.00000000E+00
  0.00000000E+00  0.00000000E+00  0.00000000E+00
  0.00000000E+00  0.00000000E+00  0.00000000E+00
