Al Nb Ta Ti Zr                          
   1.00000000000000     
    13.7713508606000001    0.0000000000000000    0.0000000000000000
     0.0000000000000000    9.5644817351999993    0.0000000000000000
     0.0000000000000000    0.0000000000000000   27.6625704340000027
   Al   Nb   Ta   Ti   Zr   O 
     6    10     4    18    26     9
Selective dynamics
Direct
  0.6227644681929405  0.8674643039429171  0.3759033260777258   F   F   F
  0.6236210409558774  0.3903349626876599  0.5473745795450541   T   T   T
  0.6146457432071110  0.6284345853900667  0.6239606765948296   T   T   T
  0.6183969974481442  0.0836375951303197  0.4496595223020776   F   F   F
  0.9821170592814775  0.6400626990052886  0.5514495307983855   T   T   T
  0.9796378016624132  0.1205664799124548  0.3776759944968475   F   F   F
  0.7285730839017219  0.3433830738484147  0.4581681964168567   F   F   F
  0.7238352737883141  0.8789124418376610  0.6231085491695213   T   T   T
  0.5173959732146116  0.6080587505955819  0.3671982609221018   F   F   F
  0.5128239735056739  0.1353660215915533  0.5416927191106896   T   T   T
  0.6181107759263895  0.3429729342184160  0.3688918347753258   F   F   F
  0.6169458436303467  0.8709777886926873  0.5376902342423486   T   T   T
  0.7423114776813264  0.8434571027837592  0.4619929955349420   F   F   F
  0.7459044206339642  0.4065609679835457  0.6277834597307891   T   T   T
  0.3940529823058725  0.8473867177948620  0.3689603213971537   F   F   F
  0.3901348486696022  0.3695638760897790  0.5457156666375236   T   T   T
  0.6192876100775209  0.6016249657127588  0.4575279823759288   F   F   F
  0.6300830199783619  0.1488888726206632  0.6263987530725614   T   T   T
  0.2794419527143148  0.8336226940197378  0.4508832749927691   F   F   F
  0.2815988438996955  0.3545671621096337  0.6310842905024036   T   T   T
  0.2780729082257007  0.5929690717202446  0.5357901463502550   T   T   T
  0.2832424640461184  0.0772557258675732  0.3614993054914777   F   F   F
  0.7372306596930116  0.6351055815982979  0.5394425884928282   T   T   T
  0.7400235534014996  0.1154997349134348  0.3664649874525097   F   F   F
  0.4959175586426454  0.8358258009505022  0.4579001786989210   F   F   F
  0.5017898573324641  0.3806184147138369  0.6289218885038473   T   T   T
  0.8380889989945035  0.6486561000012097  0.6265375544439983   T   T   T
  0.8472460508127426  0.1101704835842838  0.4546023874391452   F   F   F
  0.8524358272350767  0.3490710258468823  0.3763926535981881   F   F   F
  0.8539488704285499  0.8660398653453177  0.5529797863069524   T   T   T
  0.5217510461923496  0.3394265770880409  0.4610525165558812   F   F   F
  0.5302254443476552  0.8833301695046224  0.6281586626839708   T   T   T
  0.4960292622506453  0.6231318776897186  0.5376797704624431   T   T   T
  0.4994388222783499  0.1020021438704362  0.3646426983734727   F   F   F
  0.4001666307672522  0.5802841186442933  0.4513025303916010   F   F   F
  0.4066417108599664  0.1055155202592427  0.6325319396438804   T   T   T
  0.2550581097348470  0.3659573793860957  0.4639910950655661   F   F   F
  0.2331129614817810  0.9112022405924262  0.6331321110096689   T   T   T
  0.2518259883220253  0.6139765977479001  0.3762730847385996   F   F   F
  0.2514484813072970  0.1389378633124542  0.5484765918360857   T   T   T
  0.8653988837868241  0.8590464592306759  0.3703682871931306   F   F   F
  0.8646600479453852  0.3832949157736438  0.5456375668517196   T   T   T
  0.3805981278129806  0.3518669605080902  0.3733126396781756   F   F   F
  0.3775856564424770  0.8741383410425534  0.5460876280120569   T   T   T
  0.3828265183498749  0.6456511779474052  0.6270682730768774   T   T   T
  0.3840800821604802  0.1035751104374185  0.4557961755970084   F   F   F
  0.1165738106051037  0.6111057400516628  0.4645705434229868   F   F   F
  0.1018300762836578  0.1741352686173876  0.6357026018046295   T   T   T
  0.9962986111445460  0.5929586291254907  0.3681123388838898   F   F   F
  0.9945309941743329  0.1134999569749868  0.5431205793923650   T   T   T
  0.1186931133006368  0.8719630241236089  0.3746770427834463   F   F   F
  0.1173627385841009  0.3940804292196085  0.5544416954119795   T   T   T
  0.9997795223845003  0.3305138945862467  0.4530698690095534   F   F   F
  0.0057493086434653  0.8646280123704994  0.6326428395103604   T   T   T
  0.1448227166810483  0.3317624926107570  0.3678856063387315   F   F   F
  0.1380330268520998  0.8465650561616244  0.5435691779080308   T   T   T
  0.9788804650651883  0.8760850429732940  0.4652082991240363   F   F   F
  0.9642531786881344  0.4290609305155648  0.6436232098620973   T   T   T
  0.1398383683279370  0.6228966905382851  0.6354329511187097   T   T   T
  0.1472104788064073  0.0917321443326102  0.4507227618542444   F   F   F
  0.7313524484961960  0.6057849526416419  0.3667998753119761   F   F   F
  0.7379287614770415  0.1250714537246745  0.5380149116831555   T   T   T
  0.8692325949844033  0.5919616818507762  0.4582581416374509   F   F   F
  0.8608587505190483  0.1406499862084096  0.6409732617332312   T   T   T
  0.3805203300618560  0.8824276587414069  0.6305237768850989   T   T   T
  0.9819218956311002  0.2346395006039518  0.6765636701311685   T   T   T
  0.2581273472116025  0.1266131505713786  0.6343863931551433   T   T   T
  0.9775875151206740  0.6506304382299328  0.6568455772604131   T   T   T
  0.2703728681050609  0.5393869254829540  0.6648535820551162   T   T   T
  0.4028749178228485  0.2923497034109076  0.6678791104688970   T   T   T
  0.7389732734352734  0.0443407828138517  0.6684209072259440   T   T   T
  0.5265555666273567  0.0538264207633784  0.6676631595995294   T   T   T
  0.1384303397491731  0.8227961702260848  0.6730371035428770   T   T   T
 
  0.00000000E+00  0.00000000E+00  0.00000000E+00
  0.00000000E+00  0.00000000E+00  0.00000000E+00
  0.00000000E+00  0.00000000E+00  0.00000000E+00
  0.00000000E+00  0.00000000E+00  0.00000000E+00
  0.00000000E+00  0.00000000E+00  0.00000000E+00
  0.00000000E+00  0.00000000E+00  0.00000000E+00
  0.00000000E+00  0.00000000E+00  0.00000000E+00
  0.00000000E+00  0.00000000E+00  0.00000000E+00
  0.00000000E+00  0.00000000E+00  0.00000000E+00
  0.00000000E+00  0.00000000E+00  0.00000000E+00
  0.00000000E+00  0.00000000E+00  0.00000000E+00
  0.00000000E+00  0.00000000E+00  0.00000000E+00
  0.00000000E+00  0.00000000E+00  0.00000000E+00
  0.00000000E+00  0.00000000E+00  0.00000000E+00
  0.00000000E+00  0.00000000E+00  0.00000000E+00
  0.00000000E+00  0.00000000E+00  0.00000000E+00
  0.00000000E+00  0.00000000E+00  0.00000000E+00
  0.00000000E+00  0.00000000E+00  0.00000000E+00
  0.00000000E+00  0.00000000E+00  0.00000000E+00
  0.00000000E+00  0.00000000E+00  0.00000000E+00
  0.00000000E+00  0.00000000E+00  0.00000000E+00
  0.00000000E+00  0.00000000E+00  0.00000000E+00
  0.00000000E+00  0.00000000E+00  0.00000000E+00
  0.00000000E+00  0.00000000E+00  0.00000000E+00
  0.00000000E+00  0.00000000E+00  0.00000000E+00
  0.00000000E+00  0.00000000E+00  0.00000000E+00
  0.00000000E+00  0.00000000E+00  0.00000000E+00
  0.00000000E+00  0.00000000E+00  0.00000000E+00
  0.00000000E+00  0.00000000E+00  0.00000000E+00
  0.00000000E+00  0.00000000E+00  0.00000000E+00
  0.00000000E+00  0.00000000E+00  0.00000000E+00
  0.00000000E+00  0.00000000E+00  0.00000000E+00
  0.00000000E+00  0.00000000E+00  0.00000000E+00
  0.00000000E+00  0.00000000E+00  0.00000000E+00
  0.00000000E+00  0.00000000E+00  0.00000000E+00
  0.00000000E+00  0.00000000E+00  0.00000000E+00
  0.00000000E+00  0.00000000E+00  0.00000000E+00
  0.00000000E+00  0.00000000E+00  0.00000000E+00
  0.00000000E+00  0.00000000E+00  0.00000000E+00
  0.00000000E+00  0.00000000E+00  0.00000000E+00
  0.00000000E+00  0.00000000E+00  0.00000000E+00
  0.00000000E+00  0.00000000E+00  0.00000000E+00
  0.00000000E+00  0.00000000E+00  0.00000000E+00
  0.00000000E+00  0.00000000E+00  0.00000000E+00
  0.00000000E+00  0.00000000E+00  0.00000000E+00
  0.00000000E+00  0.00000000E+00  0.00000000E+00
  0.00000000E+00  0.00000000E+00  0.00000000E+00
  0.00000000E+00  0.00000000E+00  0.00000000E+00
  0.00000000E+00  0.00000000E+00  0.00000000E+00
  0.00000000E+00  0.00000000E+00  0.00000000E+00
  0.00000000E+00  0.00000000E+00  0.00000000E+00
  0.00000000E+00  0.00000000E+00  0.00000000E+00
  0.00000000E+00  0.00000000E+00  0.00000000E+00
  0.00000000E+00  0.00000000E+00  0.00000000E+00
  0.00000000E+00  0.00000000E+00  0.00000000E+00
  0.00000000E+00  0.00000000E+00  0.00000000E+00
  0.00000000E+00  0.00000000E+00  0.00000000E+00
  0.00000000E+00  0.00000000E+00  0.00000000E+00
  0.00000000E+00  0.00000000E+00  0.00000000E+00
  0.00000000E+00  0.00000000E+00  0.00000000E+00
  0.00000000E+00  0.00000000E+00  0.00000000E+00
  0.00000000E+00  0.00000000E+00  0.00000000E+00
  0.00000000E+00  0.00000000E+00  0.00000000E+00
  0.00000000E+00  0.00000000E+00  0.00000000E+00
  0.00000000E+00  0.00000000E+00  0.00000000E+00
  0.00000000E+00  0.00000000E+00  0.00000000E+00
  0.00000000E+00  0.00000000E+00  0.00000000E+00
  0.00000000E+00  0.00000000E+00  0.00000000E+00
  0.00000000E+00  0.00000000E+00  0.00000000E+00
  0.00000000E+00  0.00000000E+00  0.00000000E+00
  0.00000000E+00  0.00000000E+00  0.00000000E+00
  0.00000000E+00  0.00000000E+00  0.00000000E+00
  0.00000000E+00  0.00000000E+00  0.00000000E+00
