Al Nb Ta Ti Zr                          
   1.00000000000000     
    13.7713508606000001    0.0000000000000000    0.0000000000000000
     0.0000000000000000    9.5644817351999993    0.0000000000000000
     0.0000000000000000    0.0000000000000000   27.6625704340000027
   Al   Nb   Ta   Ti   Zr   O 
     6    10     4    18    26    30
Selective dynamics
Direct
  0.6227644681929405  0.8674643039429171  0.3759033260777258   F   F   F
  0.6241686840427974  0.3846721287710069  0.5447905356631479   T   T   T
  0.6089966590076108  0.6532495333879652  0.6370435312325211   T   T   T
  0.6183969974481442  0.0836375951303197  0.4496595223020776   F   F   F
  0.9734155514500794  0.6318906834048630  0.5434790999218138   T   T   T
  0.9796378016624132  0.1205664799124548  0.3776759944968475   F   F   F
  0.7285730839017219  0.3433830738484147  0.4581681964168567   F   F   F
  0.7400295631231504  0.9139546580667433  0.6440905523850289   T   T   T
  0.5173959732146116  0.6080587505955819  0.3671982609221018   F   F   F
  0.4967652422424969  0.1238351212069841  0.5602828653684119   T   T   T
  0.6181107759263895  0.3429729342184160  0.3688918347753258   F   F   F
  0.6166803797315439  0.8682431076418435  0.5398948528527516   T   T   T
  0.7423114776813264  0.8434571027837592  0.4619929955349420   F   F   F
  0.7738220388848586  0.4076298013546626  0.6532178309193780   T   T   T
  0.3940529823058725  0.8473867177948620  0.3689603213971537   F   F   F
  0.4032411765607850  0.3698965645017618  0.5362247292932594   T   T   T
  0.6192876100775209  0.6016249657127588  0.4575279823759288   F   F   F
  0.6386605138052949  0.1453727651548705  0.6445166251596354   T   T   T
  0.2794419527143148  0.8336226940197378  0.4508832749927691   F   F   F
  0.2862802795189064  0.3646513927470325  0.6256520121757220   T   T   T
  0.2703485666876232  0.5904050702449022  0.5408929500878545   T   T   T
  0.2832424640461184  0.0772557258675732  0.3614993054914777   F   F   F
  0.7609673907250598  0.5919553290272276  0.5645307538210487   T   T   T
  0.7400235534014996  0.1154997349134348  0.3664649874525097   F   F   F
  0.4959175586426454  0.8358258009505022  0.4579001786989210   F   F   F
  0.5123901122097909  0.3745169643690038  0.6555187143084957   T   T   T
  0.8701643305471318  0.6810723448850855  0.6643555917764195   T   T   T
  0.8472460508127426  0.1101704835842838  0.4546023874391452   F   F   F
  0.8524358272350767  0.3490710258468823  0.3763926535981881   F   F   F
  0.8408491042981487  0.8409088677550182  0.5431092137596277   T   T   T
  0.5217510461923496  0.3394265770880409  0.4610525165558812   F   F   F
  0.5248221682153185  0.9257412831100048  0.6392393144284886   T   T   T
  0.5062799628446185  0.6211751929821323  0.5351330818252367   T   T   T
  0.4994388222783499  0.1020021438704362  0.3646426983734727   F   F   F
  0.4001666307672522  0.5802841186442933  0.4513025303916010   F   F   F
  0.4014465517651859  0.1123758434642446  0.6557026694309566   T   T   T
  0.2550581097348470  0.3659573793860957  0.4639910950655661   F   F   F
  0.2405120923300789  0.9262084661910164  0.6440759105540661   T   T   T
  0.2518259883220253  0.6139765977479001  0.3762730847385996   F   F   F
  0.2505085536450273  0.1349244787953819  0.5427821010451328   T   T   T
  0.8653988837868241  0.8590464592306759  0.3703682871931306   F   F   F
  0.8660611140611348  0.3600718152992718  0.5485572072589128   T   T   T
  0.3805981278129806  0.3518669605080902  0.3733126396781756   F   F   F
  0.3835854938315267  0.8630745508345722  0.5457704739695426   T   T   T
  0.3837076198324696  0.6764333737166522  0.6474235101999555   T   T   T
  0.3840800821604802  0.1035751104374185  0.4557961755970084   F   F   F
  0.1165738106051037  0.6111057400516628  0.4645705434229868   F   F   F
  0.1129012796608778  0.1663305767505684  0.6407693450606372   T   T   T
  0.9962986111445460  0.5929586291254907  0.3681123388838898   F   F   F
  0.9861116655132361  0.0865202906531709  0.5504924537831509   T   T   T
  0.1186931133006368  0.8719630241236089  0.3746770427834463   F   F   F
  0.1008511962637677  0.3822519259346076  0.5547247968026086   T   T   T
  0.9997795223845003  0.3305138945862467  0.4530698690095534   F   F   F
  0.0280837091725551  0.8782106379154209  0.6426875707276075   T   T   T
  0.1448227166810483  0.3317624926107570  0.3678856063387315   F   F   F
  0.1521039898518474  0.8529022234971305  0.5483995124302161   T   T   T
  0.9788804650651883  0.8760850429732940  0.4652082991240363   F   F   F
  0.9863588920755758  0.4277334433713652  0.6579541229933045   T   T   T
  0.1543821362231344  0.6283260037255908  0.6345212656328842   T   T   T
  0.1472104788064073  0.0917321443326102  0.4507227618542444   F   F   F
  0.7313524484961960  0.6057849526416419  0.3667998753119761   F   F   F
  0.7450220852433229  0.1052692224486182  0.5444893800497013   T   T   T
  0.8692325949844033  0.5919616818507762  0.4582581416374509   F   F   F
  0.8915619082725925  0.1365225870891559  0.6586835844284757   T   T   T
  0.3827941360433085  0.8939977913669317  0.6644888405954982   T   T   T
  0.0098491993481480  0.2359176402115820  0.6926915762466407   T   T   T
  0.2549512999874416  0.1319151632091743  0.6615373904570924   T   T   T
  0.0144024335776005  0.6520611360858251  0.6642011606452901   T   T   T
  0.2754460893758208  0.5431169089785537  0.6711797153633053   T   T   T
  0.3899456432161536  0.3182912980441256  0.6773120669696415   T   T   T
  0.7541104792185128  0.0843302266628183  0.6890693750558095   T   T   T
  0.5294314839987638  0.0780665015779532  0.6890641371867890   T   T   T
  0.1571909989967983  0.8152050707113505  0.6817202367389356   T   T   T
  0.6462222755837165  0.3472427511986824  0.6774298793275416   T   T   T
  0.5112279799049366  0.5751610925329729  0.6704784065197592   T   T   T
  0.8676857480055205  0.5040744740208666  0.6999464187624407   T   T   T
  0.8858549648334165  0.8858948220421747  0.6772068398386265   T   T   T
  0.6267764252499296  0.8108901216746455  0.6714201048615782   T   T   T
  0.7344613847203841  0.6078908773262780  0.6504556604889544   T   T   T
  0.2718996612833483  0.7538822259517728  0.5950133018809419   T   T   T
  0.9868934725262124  0.2710736416511775  0.5989086330020709   T   T   T
  0.1172355532094921  0.6241491683349726  0.5512663468750998   T   T   T
  0.8519607344818471  0.0022962522234900  0.5919350131255020   T   T   T
  0.2529976819457334  0.3721549559088001  0.5413694159032140   T   T   T
  0.5029467222989605  0.7518848980291482  0.5964647600998622   T   T   T
  0.6215163044389095  0.5547513870905367  0.5801429481006012   T   T   T
  0.3696181709013545  0.5249591676089440  0.5912314958218828   T   T   T
  0.9927346763140936  0.8481018342554091  0.5577032485471033   T   T   T
  0.7915843220403482  0.2406174449638465  0.6101088596418314   T   T   T
  0.6310342476229618  0.2136170547535148  0.5756825755562249   T   T   T
  0.7245836627178111  0.7864674990172464  0.5836385117207129   T   T   T
  0.3632922167302404  0.2055739719265606  0.5915626742170513   T   T   T
  0.8929270268318682  0.5835111718515692  0.5999024432894822   T   T   T
  0.5082948212786617  0.3668904026630853  0.5877543281768763   T   T   T
 
  0.00000000E+00  0.00000000E+00  0.00000000E+00
  0.00000000E+00  0.00000000E+00  0.00000000E+00
  0.00000000E+00  0.00000000E+00  0.00000000E+00
  0.00000000E+00  0.00000000E+00  0.00000000E+00
  0.00000000E+00  0.00000000E+00  0.00000000E+00
  0.00000000E+00  0.00000000E+00  0.00000000E+00
  0.00000000E+00  0.00000000E+00  0.00000000E+00
  0.00000000E+00  0.00000000E+00  0.00000000E+00
  0.00000000E+00  0.00000000E+00  0.00000000E+00
  0.00000000E+00  0.00000000E+00  0.00000000E+00
  0.00000000E+00  0.00000000E+00  0.00000000E+00
  0.00000000E+00  0.00000000E+00  0.00000000E+00
  0.00000000E+00  0.00000000E+00  0.00000000E+00
  0.00000000E+00  0.00000000E+00  0.00000000E+00
  0.00000000E+00  0.00000000E+00  0.00000000E+00
  0.00000000E+00  0.00000000E+00  0.00000000E+00
  0.00000000E+00  0.00000000E+00  0.00000000E+00
  0.00000000E+00  0.00000000E+00  0.00000000E+00
  0.00000000E+00  0.00000000E+00  0.00000000E+00
  0.00000000E+00  0.00000000E+00  0.00000000E+00
  0.00000000E+00  0.00000000E+00  0.00000000E+00
  0.00000000E+00  0.00000000E+00  0.00000000E+00
  0.00000000E+00  0.00000000E+00  0.00000000E+00
  0.00000000E+00  0.00000000E+00  0.00000000E+00
  0.00000000E+00  0.00000000E+00  0.00000000E+00
  0.00000000E+00  0.00000000E+00  0.00000000E+00
  0.00000000E+00  0.00000000E+00  0.00000000E+00
  0.00000000E+00  0.00000000E+00  0.00000000E+00
  0.00000000E+00  0.00000000E+00  0.00000000E+00
  0.00000000E+00  0.00000000E+00  0.00000000E+00
  0.00000000E+00  0.00000000E+00  0.00000000E+00
  0.00000000E+00  0.00000000E+00  0.00000000E+00
  0.00000000E+00  0.00000000E+00  0.00000000E+00
  0.00000000E+00  0.00000000E+00  0.00000000E+00
  0.00000000E+00  0.00000000E+00  0.00000000E+00
  0.00000000E+00  0.00000000E+00  0.00000000E+00
  0.00000000E+00  0.00000000E+00  0.00000000E+00
  0.00000000E+00  0.00000000E+00  0.00000000E+00
  0.00000000E+00  0.00000000E+00  0.00000000E+00
  0.00000000E+00  0.00000000E+00  0.00000000E+00
  0.00000000E+00  0.00000000E+00  0.00000000E+00
  0.00000000E+00  0.00000000E+00  0.00000000E+00
  0.00000000E+00  0.00000000E+00  0.00000000E+00
  0.00000000E+00  0.00000000E+00  0.00000000E+00
  0.00000000E+00  0.00000000E+00  0.00000000E+00
  0.00000000E+00  0.00000000E+00  0.00000000E+00
  0.00000000E+00  0.00000000E+00  0.00000000E+00
  0.00000000E+00  0.00000000E+00  0.00000000E+00
  0.00000000E+00  0.00000000E+00  0.00000000E+00
  0.00000000E+00  0.00000000E+00  0.00000000E+00
  0.00000000E+00  0.00000000E+00  0.00000000E+00
  0.00000000E+00  0.00000000E+00  0.00000000E+00
  0.00000000E+00  0.00000000E+00  0.00000000E+00
  0.00000000E+00  0.00000000E+00  0.00000000E+00
  0.00000000E+00  0.00000000E+00  0.00000000E+00
  0.00000000E+00  0.00000000E+00  0.00000000E+00
  0.00000000E+00  0.00000000E+00  0.00000000E+00
  0.00000000E+00  0.00000000E+00  0.00000000E+00
  0.00000000E+00  0.00000000E+00  0.00000000E+00
  0.00000000E+00  0.00000000E+00  0.00000000E+00
  0.00000000E+00  0.00000000E+00  0.00000000E+00
  0.00000000E+00  0.00000000E+00  0.00000000E+00
  0.00000000E+00  0.00000000E+00  0.00000000E+00
  0.00000000E+00  0.00000000E+00  0.00000000E+00
  0.00000000E+00  0.00000000E+00  0.00000000E+00
  0.00000000E+00  0.00000000E+00  0.00000000E+00
  0.00000000E+00  0.00000000E+00  0.00000000E+00
  0.00000000E+00  0.00000000E+00  0.00000000E+00
  0.00000000E+00  0.00000000E+00  0.00000000E+00
  0.00000000E+00  0.00000000E+00  0.00000000E+00
  0.00000000E+00  0.00000000E+00  0.00000000E+00
  0.00000000E+00  0.00000000E+00  0.00000000E+00
  0.00000000E+00  0.00000000E+00  0.00000000E+00
  0.00000000E+00  0.00000000E+00  0.00000000E+00
  0.00000000E+00  0.00000000E+00  0.00000000E+00
  0.00000000E+00  0.00000000E+00  0.00000000E+00
  0.00000000E+00  0.00000000E+00  0.00000000E+00
  0.00000000E+00  0.00000000E+00  0.00000000E+00
  0.00000000E+00  0.00000000E+00  0.00000000E+00
  0.00000000E+00  0.00000000E+00  0.00000000E+00
  0.00000000E+00  0.00000000E+00  0.00000000E+00
  0.00000000E+00  0.00000000E+00  0.00000000E+00
  0.00000000E+00  0.00000000E+00  0.00000000E+00
  0.00000000E+00  0.00000000E+00  0.00000000E+00
  0.00000000E+00  0.00000000E+00  0.00000000E+00
  0.00000000E+00  0.00000000E+00  0.00000000E+00
  0.00000000E+00  0.00000000E+00  0.00000000E+00
  0.00000000E+00  0.00000000E+00  0.00000000E+00
  0.00000000E+00  0.00000000E+00  0.00000000E+00
  0.00000000E+00  0.00000000E+00  0.00000000E+00
  0.00000000E+00  0.00000000E+00  0.00000000E+00
  0.00000000E+00  0.00000000E+00  0.00000000E+00
  0.00000000E+00  0.00000000E+00  0.00000000E+00
  0.00000000E+00  0.00000000E+00  0.00000000E+00
