Al Nb Ta Ti Zr                          
   1.00000000000000     
    13.7713508606000001    0.0000000000000000    0.0000000000000000
     0.0000000000000000    9.5644817351999993    0.0000000000000000
     0.0000000000000000    0.0000000000000000   27.6625704340000027
   Al   Nb   Ta   Ti   Zr   O 
     6    10     4    18    26    11
Selective dynamics
Direct
  0.6227644681929405  0.8674643039429171  0.3759033260777258   F   F   F
  0.6198194803421924  0.3999385716716093  0.5451800826239930   T   T   T
  0.6346266794476605  0.6299542048852240  0.6166869935776039   T   T   T
  0.6183969974481442  0.0836375951303197  0.4496595223020776   F   F   F
  0.9758395144555763  0.6419991489118418  0.5520247617780751   T   T   T
  0.9796378016624132  0.1205664799124548  0.3776759944968475   F   F   F
  0.7285730839017219  0.3433830738484147  0.4581681964168567   F   F   F
  0.7251445161149510  0.8820720489789732  0.6245013730909127   T   T   T
  0.5173959732146116  0.6080587505955819  0.3671982609221018   F   F   F
  0.5098624384578205  0.1407294631386592  0.5449433627885364   T   T   T
  0.6181107759263895  0.3429729342184160  0.3688918347753258   F   F   F
  0.6145192057492452  0.8687019901761752  0.5410547351365783   T   T   T
  0.7423114776813264  0.8434571027837592  0.4619929955349420   F   F   F
  0.7408853357385662  0.3919464327756601  0.6270815678096420   T   T   T
  0.3940529823058725  0.8473867177948620  0.3689603213971537   F   F   F
  0.3865176016816871  0.3724065351580438  0.5457893756164927   T   T   T
  0.6192876100775209  0.6016249657127588  0.4575279823759288   F   F   F
  0.6200468567165499  0.1239616289546545  0.6341975225957319   T   T   T
  0.2794419527143148  0.8336226940197378  0.4508832749927691   F   F   F
  0.2773797416515819  0.3506945837597849  0.6322985611449289   T   T   T
  0.2782520624329494  0.5995679631878882  0.5296348736440196   T   T   T
  0.2832424640461184  0.0772557258675732  0.3614993054914777   F   F   F
  0.7428689759404445  0.6372350727980099  0.5365335661954570   T   T   T
  0.7400235534014996  0.1154997349134348  0.3664649874525097   F   F   F
  0.4959175586426454  0.8358258009505022  0.4579001786989210   F   F   F
  0.4974008077624553  0.3905826099373671  0.6303921552397164   T   T   T
  0.8332865798289741  0.6536554075518312  0.6278118582045644   T   T   T
  0.8472460508127426  0.1101704835842838  0.4546023874391452   F   F   F
  0.8524358272350767  0.3490710258468823  0.3763926535981881   F   F   F
  0.8523236977708851  0.8741628730144850  0.5513556250088210   T   T   T
  0.5217510461923496  0.3394265770880409  0.4610525165558812   F   F   F
  0.5187402087883036  0.8473532914201117  0.6303749408421916   T   T   T
  0.4964852508231737  0.6280994343124667  0.5378069992378081   T   T   T
  0.4994388222783499  0.1020021438704362  0.3646426983734727   F   F   F
  0.4001666307672522  0.5802841186442933  0.4513025303916010   F   F   F
  0.4012511718106603  0.0982057500488943  0.6328206397863512   T   T   T
  0.2550581097348470  0.3659573793860957  0.4639910950655661   F   F   F
  0.2216615628188231  0.9096644692227436  0.6356695262704571   T   T   T
  0.2518259883220253  0.6139765977479001  0.3762730847385996   F   F   F
  0.2498101688378712  0.1400897989369926  0.5484505387168377   T   T   T
  0.8653988837868241  0.8590464592306759  0.3703682871931306   F   F   F
  0.8680859679055227  0.3782152396868247  0.5448204842284231   T   T   T
  0.3805981278129806  0.3518669605080902  0.3733126396781756   F   F   F
  0.3757216556175796  0.8816329581465981  0.5458598527512398   T   T   T
  0.3521179543469897  0.6503758399233286  0.6247525305432594   T   T   T
  0.3840800821604802  0.1035751104374185  0.4557961755970084   F   F   F
  0.1165738106051037  0.6111057400516628  0.4645705434229868   F   F   F
  0.0961592281142700  0.1772609191484334  0.6347130257852068   T   T   T
  0.9962986111445460  0.5929586291254907  0.3681123388838898   F   F   F
  0.9951790335573374  0.1117427843913067  0.5417711210188557   T   T   T
  0.1186931133006368  0.8719630241236089  0.3746770427834463   F   F   F
  0.1156653846015947  0.3998837704367370  0.5537641174741971   T   T   T
  0.9997795223845003  0.3305138945862467  0.4530698690095534   F   F   F
  0.9984677042791873  0.8680566020880106  0.6331562416344861   T   T   T
  0.1448227166810483  0.3317624926107570  0.3678856063387315   F   F   F
  0.1383650689524506  0.8362931350461980  0.5461862318715267   T   T   T
  0.9788804650651883  0.8760850429732940  0.4652082991240363   F   F   F
  0.9561104974533448  0.4296084082939424  0.6455820478047386   T   T   T
  0.1284017514373976  0.6234430849389213  0.6402111345894634   T   T   T
  0.1472104788064073  0.0917321443326102  0.4507227618542444   F   F   F
  0.7313524484961960  0.6057849526416419  0.3667998753119761   F   F   F
  0.7303636434940938  0.1306146781506492  0.5417432319434815   T   T   T
  0.8692325949844033  0.5919616818507762  0.4582581416374509   F   F   F
  0.8569640677220303  0.1388381134381086  0.6406529131980191   T   T   T
  0.3689818110557683  0.8792374733428329  0.6302891340575623   T   T   T
  0.9770160789362653  0.2352709057122687  0.6766737578837345   T   T   T
  0.2524213027600795  0.1261901271468348  0.6336187218161882   T   T   T
  0.9673788186152575  0.6539258711218926  0.6592736691025207   T   T   T
  0.2570135099334259  0.5289512918451861  0.6677367046521483   T   T   T
  0.3993194060352448  0.2856109475435869  0.6671298023870510   T   T   T
  0.7396990534556087  0.0428521101627942  0.6735208387678557   T   T   T
  0.5134120337196529  0.0246002637900196  0.6691347060920788   T   T   T
  0.1254767232817126  0.8262745060656101  0.6762674929204325   T   T   T
  0.6199190968407364  0.3192266471962033  0.6634540439686953   T   T   T
  0.5055908224847729  0.6257869679284901  0.6395279683394479   T   T   T
 
  0.00000000E+00  0.00000000E+00  0.00000000E+00
  0.00000000E+00  0.00000000E+00  0.00000000E+00
  0.00000000E+00  0.00000000E+00  0.00000000E+00
  0.00000000E+00  0.00000000E+00  0.00000000E+00
  0.00000000E+00  0.00000000E+00  0.00000000E+00
  0.00000000E+00  0.00000000E+00  0.00000000E+00
  0.00000000E+00  0.00000000E+00  0.00000000E+00
  0.00000000E+00  0.00000000E+00  0.00000000E+00
  0.00000000E+00  0.00000000E+00  0.00000000E+00
  0.00000000E+00  0.00000000E+00  0.00000000E+00
  0.00000000E+00  0.00000000E+00  0.00000000E+00
  0.00000000E+00  0.00000000E+00  0.00000000E+00
  0.00000000E+00  0.00000000E+00  0.00000000E+00
  0.00000000E+00  0.00000000E+00  0.00000000E+00
  0.00000000E+00  0.00000000E+00  0.00000000E+00
  0.00000000E+00  0.00000000E+00  0.00000000E+00
  0.00000000E+00  0.00000000E+00  0.00000000E+00
  0.00000000E+00  0.00000000E+00  0.00000000E+00
  0.00000000E+00  0.00000000E+00  0.00000000E+00
  0.00000000E+00  0.00000000E+00  0.00000000E+00
  0.00000000E+00  0.00000000E+00  0.00000000E+00
  0.00000000E+00  0.00000000E+00  0.00000000E+00
  0.00000000E+00  0.00000000E+00  0.00000000E+00
  0.00000000E+00  0.00000000E+00  0.00000000E+00
  0.00000000E+00  0.00000000E+00  0.00000000E+00
  0.00000000E+00  0.00000000E+00  0.00000000E+00
  0.00000000E+00  0.00000000E+00  0.00000000E+00
  0.00000000E+00  0.00000000E+00  0.00000000E+00
  0.00000000E+00  0.00000000E+00  0.00000000E+00
  0.00000000E+00  0.00000000E+00  0.00000000E+00
  0.00000000E+00  0.00000000E+00  0.00000000E+00
  0.00000000E+00  0.00000000E+00  0.00000000E+00
  0.00000000E+00  0.00000000E+00  0.00000000E+00
  0.00000000E+00  0.00000000E+00  0.00000000E+00
  0.00000000E+00  0.00000000E+00  0.00000000E+00
  0.00000000E+00  0.00000000E+00  0.00000000E+00
  0.00000000E+00  0.00000000E+00  0.00000000E+00
  0.00000000E+00  0.00000000E+00  0.00000000E+00
  0.00000000E+00  0.00000000E+00  0.00000000E+00
  0.00000000E+00  0.00000000E+00  0.00000000E+00
  0.00000000E+00  0.00000000E+00  0.00000000E+00
  0.00000000E+00  0.00000000E+00  0.00000000E+00
  0.00000000E+00  0.00000000E+00  0.00000000E+00
  0.00000000E+00  0.00000000E+00  0.00000000E+00
  0.00000000E+00  0.00000000E+00  0.00000000E+00
  0.00000000E+00  0.00000000E+00  0.00000000E+00
  0.00000000E+00  0.00000000E+00  0.00000000E+00
  0.00000000E+00  0.00000000E+00  0.00000000E+00
  0.00000000E+00  0.00000000E+00  0.00000000E+00
  0.00000000E+00  0.00000000E+00  0.00000000E+00
  0.00000000E+00  0.00000000E+00  0.00000000E+00
  0.00000000E+00  0.00000000E+00  0.00000000E+00
  0.00000000E+00  0.00000000E+00  0.00000000E+00
  0.00000000E+00  0.00000000E+00  0.00000000E+00
  0.00000000E+00  0.00000000E+00  0.00000000E+00
  0.00000000E+00  0.00000000E+00  0.00000000E+00
  0.00000000E+00  0.00000000E+00  0.00000000E+00
  0.00000000E+00  0.00000000E+00  0.00000000E+00
  0.00000000E+00  0.00000000E+00  0.00000000E+00
  0.00000000E+00  0.00000000E+00  0.00000000E+00
  0.00000000E+00  0.00000000E+00  0.00000000E+00
  0.00000000E+00  0.00000000E+00  0.00000000E+00
  0.00000000E+00  0.00000000E+00  0.00000000E+00
  0.00000000E+00  0.00000000E+00  0.00000000E+00
  0.00000000E+00  0.00000000E+00  0.00000000E+00
  0.00000000E+00  0.00000000E+00  0.00000000E+00
  0.00000000E+00  0.00000000E+00  0.00000000E+00
  0.00000000E+00  0.00000000E+00  0.00000000E+00
  0.00000000E+00  0.00000000E+00  0.00000000E+00
  0.00000000E+00  0.00000000E+00  0.00000000E+00
  0.00000000E+00  0.00000000E+00  0.00000000E+00
  0.00000000E+00  0.00000000E+00  0.00000000E+00
  0.00000000E+00  0.00000000E+00  0.00000000E+00
  0.00000000E+00  0.00000000E+00  0.00000000E+00
  0.00000000E+00  0.00000000E+00  0.00000000E+00
